H                                       
   1.00000000000000     
    15.0000000000000000    0.0000000000000000    0.0000000000000000
     0.0000000000000000   16.0000000000000000    0.0000000000000000
     0.0000000000000000    0.0000000000000000   17.0000000000000000
   H 
     2
Selective dynamics
Direct
  0.4999999999995380  0.4999713734668477  0.4999999999809759   T   T   T
  0.5000000000004621  0.5469036265331524  0.5000000000190241   T   T   T
 
  0.00000000E+00  0.00000000E+00  0.00000000E+00
  0.00000000E+00  0.00000000E+00  0.00000000E+00
