C Cu H O
1.0
 10.690900000000   0.000000000000   0.000000000000
  0.000000000000  10.690900000000   0.000000000000
  0.000000000000   0.000000000000  18.563700000000
C Cu H O
  2  54   4   3
Selective dynamics
Direct
  0.290642140274   0.128748492560   0.276587607921  T T T
  0.394249511683   0.217414389625   0.278693333608  T T T
  0.999502953463   0.999890473459   0.001299203720  F F F
  0.332835796617   0.999890473459   0.001299203720  F F F
  0.666168639771   0.999890473459   0.001299203720  F F F
  0.166169375040   0.166556895036   0.001299203720  F F F
  0.499502218194   0.166556895036   0.001299203720  F F F
  0.832835061348   0.166556895036   0.001299203720  F F F
  0.999502953463   0.333223316613   0.001299203720  F F F
  0.332835796617   0.333223316613   0.001299203720  F F F
  0.666168639771   0.333223316613   0.001299203720  F F F
  0.166169375040   0.499889738190   0.001299203720  F F F
  0.499502218194   0.499889738190   0.001299203720  F F F
  0.832835061348   0.499889738190   0.001299203720  F F F
  0.999502953463   0.666556159767   0.001299203720  F F F
  0.332835796617   0.666556159767   0.001299203720  F F F
  0.666168639771   0.666556159767   0.001299203720  F F F
  0.166169375040   0.833222581344   0.001299203720  F F F
  0.499502218194   0.833222581344   0.001299203720  F F F
  0.832835061348   0.833222581344   0.001299203720  F F F
  0.166139351861   0.999780525963   0.098132382179  T T T
  0.497661687710   0.000686147332   0.098411040366  T T T
  0.833332085651   0.999252980463   0.097210139922  T T T
  0.002414314901   0.166292047073   0.098591055787  T T T
  0.332420227007   0.166309178792   0.096324209831  T T T
  0.666047161685   0.166090215716   0.097041529086  T T T
  0.168108661616   0.332024915681   0.099087366353  T T T
  0.499173058815   0.332888565534   0.097038430991  T T T
  0.834074087007   0.332829315814   0.096768531108  T T T
  0.997999287037   0.499078985282   0.098388196503  T T T
  0.333954381178   0.498845806050   0.098457324044  T T T
  0.666156433504   0.500574818349   0.096301432167  T T T
  0.165952441671   0.665131942018   0.097620349794  T T T
  0.499489450363   0.667262141160   0.097538827287  T T T
  0.832210848536   0.665405783446   0.097950360624  T T T
  0.999531362377   0.832097682238   0.097667871085  T T T
  0.331767948429   0.835228241108   0.098798960122  T T T
  0.665899973008   0.833226980494   0.097613020988  T T T
  0.997460697915   0.997604331717   0.193883490659  T T T
  0.329518157182   0.997971788969   0.199907539496  T T T
  0.667558221814   0.999271910477   0.193581005450  T T T
  0.163822307329   0.165906929391   0.199658473966  T T T
  0.504247047863   0.166471160847   0.195519375336  T T T
  0.833815813015   0.165761959726   0.193488017261  T T T
  0.998561278179   0.333875420130   0.194284410113  T T T
  0.337304662110   0.336562669937   0.198123049774  T T T
  0.668973370363   0.333404530964   0.191596969941  T T T
  0.166549037047   0.499531761379   0.194171001374  T T T
  0.505242624518   0.502490285944   0.194264200497  T T T
  0.826751021795   0.498371128520   0.197432398990  T T T
  0.996689407060   0.663009285842   0.194507325967  T T T
  0.334077159379   0.665755474064   0.194273625735  T T T
  0.666297159865   0.669188654968   0.195056075142  T T T
  0.163609026162   0.828381817462   0.194086960007  T T T
  0.498699739341   0.834292226435   0.194033421939  T T T
  0.833157442257   0.832059926627   0.194264617666  T T T
  0.672014918235   0.426545395261   0.265915157196  T T T
  0.300122477224   0.132769730942   0.378763744636  T T T
  0.713266897424   0.312750475240   0.342268439729  T T T
  0.563582376861   0.329430883646   0.338045520047  T T T
  0.247851930342   0.089985931042   0.342271934754  T T T
  0.440975117778   0.253940910675   0.338601614727  T T T
  0.648714573753   0.377606166648   0.339339549214  T T T
