C Cu H O
1.0
 10.690900000000   0.000000000000   0.000000000000
  0.000000000000  10.690900000000   0.000000000000
  0.000000000000   0.000000000000  18.563700000000
C Cu H O
  2  54   4   3
Selective dynamics
Direct
  0.281615060660   0.125246395934   0.275863356675  T T T
  0.387006391533   0.211560998609   0.278808750744  T T T
  0.999502953463   0.999890473459   0.001299203720  F F F
  0.332835796617   0.999890473459   0.001299203720  F F F
  0.666168639771   0.999890473459   0.001299203720  F F F
  0.166169375040   0.166556895036   0.001299203720  F F F
  0.499502218194   0.166556895036   0.001299203720  F F F
  0.832835061348   0.166556895036   0.001299203720  F F F
  0.999502953463   0.333223316613   0.001299203720  F F F
  0.332835796617   0.333223316613   0.001299203720  F F F
  0.666168639771   0.333223316613   0.001299203720  F F F
  0.166169375040   0.499889738190   0.001299203720  F F F
  0.499502218194   0.499889738190   0.001299203720  F F F
  0.832835061348   0.499889738190   0.001299203720  F F F
  0.999502953463   0.666556159767   0.001299203720  F F F
  0.332835796617   0.666556159767   0.001299203720  F F F
  0.666168639771   0.666556159767   0.001299203720  F F F
  0.166169375040   0.833222581344   0.001299203720  F F F
  0.499502218194   0.833222581344   0.001299203720  F F F
  0.832835061348   0.833222581344   0.001299203720  F F F
  0.165940214275   0.000318845599   0.097521398824  T T T
  0.498007248780   0.001478219525   0.098148323445  T T T
  0.832557880820   0.999563571229   0.096811809206  T T T
  0.001548998523   0.166768759618   0.097586271292  T T T
  0.332356362353   0.166928534300   0.096161199313  T T T
  0.665584594379   0.168237553723   0.098817823990  T T T
  0.168202188382   0.332246602114   0.098745929502  T T T
  0.501266823066   0.333357269178   0.099226513316  T T T
  0.830967295774   0.333664609289   0.098507931909  T T T
  0.998503925180   0.499490172561   0.097816181347  T T T
  0.334764820953   0.498404845740   0.098719230528  T T T
  0.665851775533   0.498219577378   0.096621426039  T T T
  0.166501566234   0.665212608260   0.097120572248  T T T
  0.499150069960   0.667776977117   0.096906108608  T T T
  0.832665584842   0.666904139895   0.096794217949  T T T
 -0.000131540562   0.832983896198   0.097053795910  T T T
  0.331837126231   0.835566682469   0.098079399462  T T T
  0.665694325327   0.832199570007   0.097603893106  T T T
  0.997339746344   0.997000663612   0.193478620134  T T T
  0.328086334863   0.997471369641   0.199093226889  T T T
  0.667341593695   0.998430024516   0.193266019759  T T T
  0.160322793137   0.166611317268   0.198435367972  T T T
  0.500886393572   0.164766251540   0.195645479524  T T T
  0.836116559340   0.164070542843   0.192641291242  T T T
  0.997959350388   0.334784577790   0.193353025233  T T T
  0.337109303926   0.335736382121   0.198489590051  T T T
  0.670886818797   0.333489631794   0.202635221444  T T T
  0.166932170080   0.499571424700   0.194055132840  T T T
  0.501843811767   0.505831391861   0.195248058211  T T T
  0.832765249345   0.503984559614   0.195320405271  T T T
  0.999570439432   0.665816078968   0.193647009536  T T T
  0.332729907518   0.667445433601   0.193844173166  T T T
  0.666116512497   0.671075461099   0.195516753053  T T T
  0.163992903974   0.829705905921   0.193460539034  T T T
  0.497986672056   0.834937843389   0.193471397988  T T T
  0.833597727993   0.832382511950   0.193728946403  T T T
  0.667521715952   0.517527646241   0.224270008830  T T T
  0.291171942391   0.126284894859   0.377899985276  T T T
  0.713437602022   0.249558209942   0.331951335618  T T T
  0.569579482690   0.291473598805   0.329028896747  T T T
  0.238003331896   0.085390560004   0.341104342945  T T T
  0.434053989418   0.244235377931   0.339291116367  T T T
  0.659435885232   0.316798355675   0.314904993448  T T T
