C Cu H O                                
   1.00000000000000     
    10.6908999999999992    0.0000000000000000    0.0000000000000000
     0.0000000000000000   10.6908999999999992    0.0000000000000000
     0.0000000000000000    0.0000000000000000   18.5637000000000008
   C    Cu   H    O 
     2    54     4     3
Selective dynamics
Direct
  0.2871411513726422  0.1239609754145743  0.2764505227629416   T   T   T
  0.3885107220316671  0.2147512113995711  0.2796035068917622   T   T   T
  0.9995029534630007  0.9998904734589971  0.0012992037200021   F   F   F
  0.3328357966169975  0.9998904734589971  0.0012992037200021   F   F   F
  0.6661686397710014  0.9998904734589971  0.0012992037200021   F   F   F
  0.1661693750399991  0.1665568950360026  0.0012992037200021   F   F   F
  0.4995022181940030  0.1665568950360026  0.0012992037200021   F   F   F
  0.8328350613479998  0.1665568950360026  0.0012992037200021   F   F   F
  0.9995029534630007  0.3332233166130010  0.0012992037200021   F   F   F
  0.3328357966169975  0.3332233166130010  0.0012992037200021   F   F   F
  0.6661686397710014  0.3332233166130010  0.0012992037200021   F   F   F
  0.1661693750399991  0.4998897381899994  0.0012992037200021   F   F   F
  0.4995022181940030  0.4998897381899994  0.0012992037200021   F   F   F
  0.8328350613479998  0.4998897381899994  0.0012992037200021   F   F   F
  0.9995029534630007  0.6665561597669978  0.0012992037200021   F   F   F
  0.3328357966169975  0.6665561597669978  0.0012992037200021   F   F   F
  0.6661686397710014  0.6665561597669978  0.0012992037200021   F   F   F
  0.1661693750399991  0.8332225813440033  0.0012992037200021   F   F   F
  0.4995022181940030  0.8332225813440033  0.0012992037200021   F   F   F
  0.8328350613479998  0.8332225813440033  0.0012992037200021   F   F   F
  0.1663285790887888  0.9999354875355312  0.0979551998238112   T   T   T
  0.4980388800005847  0.0012690497883030  0.0987412770971488   T   T   T
  0.8326447656107591  0.9996973719728230  0.0973215949431841   T   T   T
  0.0018845874372549  0.1661137071775465  0.0984049571877649   T   T   T
  0.3329451641796081  0.1663941725835637  0.0965023949486702   T   T   T
  0.6655373416138659  0.1669952434015987  0.0978262457820552   T   T   T
  0.1683415802552451  0.3316486260187191  0.0990234713881897   T   T   T
  0.4992230359606692  0.3329003930953339  0.0972697704738688   T   T   T
  0.8337557344434287  0.3331185150892010  0.0970096829635426   T   T   T
  0.0000796146714342  0.4993745814911058  0.0975630059534095   T   T   T
  0.3343837972693627  0.4985639117329909  0.0986749452748634   T   T   T
  0.6667843757005461  0.5007370488651689  0.0963404512358124   T   T   T
  0.1665990448977148  0.6656565415414112  0.0974903306951011   T   T   T
  0.4994922944986511  0.6667645187883369  0.0975778868121583   T   T   T
  0.8329017874189294  0.6663903571855818  0.0973757401903364   T   T   T
 -0.0002694297490159  0.8329530698759335  0.0975241830913555   T   T   T
  0.3324550631582043  0.8352629528329136  0.0986034897611776   T   T   T
  0.6657324965350052  0.8332496953887639  0.0976535177045007   T   T   T
  0.9962017496896808  0.9979165414534555  0.1938374356042644   T   T   T
  0.3302802163433154  0.9971038863245301  0.1994655369223074   T   T   T
  0.6672791039778720  0.9996377557067310  0.1938892521119142   T   T   T
  0.1628874559083260  0.1649180837161127  0.1992008870956724   T   T   T
  0.5038282008418357  0.1676696594620642  0.1971135976160750   T   T   T
  0.8325940703710546  0.1674688918786527  0.1937690038351901   T   T   T
  0.9993531389876829  0.3333538317933246  0.1939955843613389   T   T   T
  0.3364110232290484  0.3356642668713899  0.1985614804853477   T   T   T
  0.6692394956586001  0.3370754538434097  0.1930040990475126   T   T   T
  0.1669118950604722  0.4996282830847202  0.1941618336636701   T   T   T
  0.5058234573636822  0.5015685276300265  0.1954712708141084   T   T   T
  0.8340979291215116  0.5008097719243905  0.1941276693736661   T   T   T
  0.9990013093374585  0.6654083362337696  0.1941306201196893   T   T   T
  0.3344526405503477  0.6655053860300428  0.1940669785063930   T   T   T
  0.6673099269080083  0.6677472601254928  0.1945904814005165   T   T   T
  0.1644918203536009  0.8294706035840731  0.1938746396268637   T   T   T
  0.4994230832625983  0.8336076556420312  0.1939955853398447   T   T   T
  0.8327405627090554  0.8318973996008705  0.1941272238766394   T   T   T
  0.6110451260172888  0.4349007661993118  0.2622609869107439   T   T   T
  0.2941811909927534  0.1285683953095473  0.3783706708623876   T   T   T
  0.6906730543759551  0.3524429783352309  0.3419692734150984   T   T   T
  0.5390387743780085  0.3375861974198498  0.3418334895202123   T   T   T
  0.2436424673476981  0.0840762383847820  0.3416534982384833   T   T   T
  0.4306559661510959  0.2506639880670993  0.3409082789665894   T   T   T
  0.6135865528659045  0.4018315431100514  0.3396311124323597   T   T   T
 
  0.00000000E+00  0.00000000E+00  0.00000000E+00
  0.00000000E+00  0.00000000E+00  0.00000000E+00
  0.00000000E+00  0.00000000E+00  0.00000000E+00
  0.00000000E+00  0.00000000E+00  0.00000000E+00
  0.00000000E+00  0.00000000E+00  0.00000000E+00
  0.00000000E+00  0.00000000E+00  0.00000000E+00
  0.00000000E+00  0.00000000E+00  0.00000000E+00
  0.00000000E+00  0.00000000E+00  0.00000000E+00
  0.00000000E+00  0.00000000E+00  0.00000000E+00
  0.00000000E+00  0.00000000E+00  0.00000000E+00
  0.00000000E+00  0.00000000E+00  0.00000000E+00
  0.00000000E+00  0.00000000E+00  0.00000000E+00
  0.00000000E+00  0.00000000E+00  0.00000000E+00
  0.00000000E+00  0.00000000E+00  0.00000000E+00
  0.00000000E+00  0.00000000E+00  0.00000000E+00
  0.00000000E+00  0.00000000E+00  0.00000000E+00
  0.00000000E+00  0.00000000E+00  0.00000000E+00
  0.00000000E+00  0.00000000E+00  0.00000000E+00
  0.00000000E+00  0.00000000E+00  0.00000000E+00
  0.00000000E+00  0.00000000E+00  0.00000000E+00
  0.00000000E+00  0.00000000E+00  0.00000000E+00
  0.00000000E+00  0.00000000E+00  0.00000000E+00
  0.00000000E+00  0.00000000E+00  0.00000000E+00
  0.00000000E+00  0.00000000E+00  0.00000000E+00
  0.00000000E+00  0.00000000E+00  0.00000000E+00
  0.00000000E+00  0.00000000E+00  0.00000000E+00
  0.00000000E+00  0.00000000E+00  0.00000000E+00
  0.00000000E+00  0.00000000E+00  0.00000000E+00
  0.00000000E+00  0.00000000E+00  0.00000000E+00
  0.00000000E+00  0.00000000E+00  0.00000000E+00
  0.00000000E+00  0.00000000E+00  0.00000000E+00
  0.00000000E+00  0.00000000E+00  0.00000000E+00
  0.00000000E+00  0.00000000E+00  0.00000000E+00
  0.00000000E+00  0.00000000E+00  0.00000000E+00
  0.00000000E+00  0.00000000E+00  0.00000000E+00
  0.00000000E+00  0.00000000E+00  0.00000000E+00
  0.00000000E+00  0.00000000E+00  0.00000000E+00
  0.00000000E+00  0.00000000E+00  0.00000000E+00
  0.00000000E+00  0.00000000E+00  0.00000000E+00
  0.00000000E+00  0.00000000E+00  0.00000000E+00
  0.00000000E+00  0.00000000E+00  0.00000000E+00
  0.00000000E+00  0.00000000E+00  0.00000000E+00
  0.00000000E+00  0.00000000E+00  0.00000000E+00
  0.00000000E+00  0.00000000E+00  0.00000000E+00
  0.00000000E+00  0.00000000E+00  0.00000000E+00
  0.00000000E+00  0.00000000E+00  0.00000000E+00
  0.00000000E+00  0.00000000E+00  0.00000000E+00
  0.00000000E+00  0.00000000E+00  0.00000000E+00
  0.00000000E+00  0.00000000E+00  0.00000000E+00
  0.00000000E+00  0.00000000E+00  0.00000000E+00
  0.00000000E+00  0.00000000E+00  0.00000000E+00
  0.00000000E+00  0.00000000E+00  0.00000000E+00
  0.00000000E+00  0.00000000E+00  0.00000000E+00
  0.00000000E+00  0.00000000E+00  0.00000000E+00
  0.00000000E+00  0.00000000E+00  0.00000000E+00
  0.00000000E+00  0.00000000E+00  0.00000000E+00
  0.00000000E+00  0.00000000E+00  0.00000000E+00
  0.00000000E+00  0.00000000E+00  0.00000000E+00
  0.00000000E+00  0.00000000E+00  0.00000000E+00
  0.00000000E+00  0.00000000E+00  0.00000000E+00
  0.00000000E+00  0.00000000E+00  0.00000000E+00
  0.00000000E+00  0.00000000E+00  0.00000000E+00
  0.00000000E+00  0.00000000E+00  0.00000000E+00
