Cu C O                                  
   1.00000000000000     
    10.6908999999999992    0.0000000000000000    0.0000000000000000
     0.0000000000000000   10.6908999999999992    0.0000000000000000
     0.0000000000000000    0.0000000000000000   18.5637000000000008
   Cu   C    O 
    54     2     1
Selective dynamics
Direct
  0.0000000000000000  0.0000000000000000  0.0000000000000000   F   F   F
  0.3333328431539968  0.0000000000000000  0.0000000000000000   F   F   F
  0.6666656863080007  0.0000000000000000  0.0000000000000000   F   F   F
  0.1666664215769984  0.1666664215769984  0.0000000000000000   F   F   F
  0.4999992647310023  0.1666664215769984  0.0000000000000000   F   F   F
  0.8333321078849991  0.1666664215769984  0.0000000000000000   F   F   F
  0.0000000000000000  0.3333328431539968  0.0000000000000000   F   F   F
  0.3333328431539968  0.3333328431539968  0.0000000000000000   F   F   F
  0.6666656863080007  0.3333328431539968  0.0000000000000000   F   F   F
  0.1666664215769984  0.4999992647310023  0.0000000000000000   F   F   F
  0.4999992647310023  0.4999992647310023  0.0000000000000000   F   F   F
  0.8333321078849991  0.4999992647310023  0.0000000000000000   F   F   F
  0.0000000000000000  0.6666656863080007  0.0000000000000000   F   F   F
  0.3333328431539968  0.6666656863080007  0.0000000000000000   F   F   F
  0.6666656863080007  0.6666656863080007  0.0000000000000000   F   F   F
  0.1666664215769984  0.8333321078849991  0.0000000000000000   F   F   F
  0.4999992647310023  0.8333321078849991  0.0000000000000000   F   F   F
  0.8333321078849991  0.8333321078849991  0.0000000000000000   F   F   F
  0.1671141874463076  0.0004477658693091  0.0970130399074626   T   T   T
  0.4995514988616933  0.0004477658693091  0.0970130399074626   T   T   T
  0.8333321078849991  0.0003698466923287  0.0962460644704311   T   T   T
  0.0022811129132574  0.1666664215769984  0.0976617459093401   T   T   T
  0.3333330215420034  0.1666660430829978  0.0933961199174737   T   T   T
  0.6643845733947433  0.1666664215769984  0.0976617459093401   T   T   T
  0.1671141874463076  0.3328850772846878  0.0970130399074626   T   T   T
  0.4995519270066937  0.3328849485486899  0.0970130399074626   T   T   T
  0.8333321078849991  0.3329629964616682  0.0962460644704311   T   T   T
  0.9998971797016432  0.5001020850293592  0.0963227831983332   T   T   T
  0.3333328431539968  0.4977181518177450  0.0976617459093401   T   T   T
  0.6667685066063576  0.5001020850293592  0.0963227831983332   T   T   T
  0.1670362682693342  0.6666656863080007  0.0962460644704311   T   T   T
  0.4996294180386666  0.6666656863080007  0.0962460644704311   T   T   T
  0.8333321078849991  0.6666656863080007  0.0963491143792238   T   T   T
  0.9998971797016432  0.8332292875866423  0.0963227831983332   T   T   T
  0.3333328431539968  0.8356132207982565  0.0976617459093401   T   T   T
  0.6667685066063576  0.8332292875866423  0.0963227831983332   T   T   T
  0.9988390404844703  0.9990173231076429  0.1926664633792730   T   T   T
  0.3333328431539968  0.9983033417884122  0.1971677130636383   T   T   T
  0.6678266458235234  0.9990173231076429  0.1926664633792730   T   T   T
  0.1649693848714171  0.1666664215769984  0.1971677130636383   T   T   T
  0.5016959229425830  0.1666664215769984  0.1971677130636383   T   T   T
  0.8333321078849991  0.1666664215769984  0.1933032147219891   T   T   T
  0.9988390404844703  0.3343155200463536  0.1926664633792730   T   T   T
  0.3333330215420034  0.3350295013655847  0.1971677130636383   T   T   T
  0.6678266458235234  0.3343155200463536  0.1926664633792730   T   T   T
  0.1656837446846486  0.5011602242465250  0.1926664633792730   T   T   T
  0.5009819416233523  0.5011602242465250  0.1926664633792730   T   T   T
  0.8333321078849991  0.5005750864850316  0.1931075838848469   T   T   T
  0.9994241782459707  0.6666656863080007  0.1931075838848469   T   T   T
  0.3333328431539968  0.6666656863080007  0.1933032147219891   T   T   T
  0.6672415080620229  0.6666656863080007  0.1931075838848469   T   T   T
  0.1656837446846486  0.8321711483694765  0.1926664633792730   T   T   T
  0.5009819416233523  0.8321711483694765  0.1926664633792730   T   T   T
  0.8333321078849991  0.8327562861309699  0.1931075838848469   T   T   T
  0.3333330215420034  0.1666660430829978  0.2492702552158436   T   T   T
  0.3333330219399997  0.1666660434810012  0.3207657456693782   T   T   T
  0.3333330220240001  0.1666660435439979  0.3843359395003155   T   T   T
 
  0.00000000E+00  0.00000000E+00  0.00000000E+00
  0.00000000E+00  0.00000000E+00  0.00000000E+00
  0.00000000E+00  0.00000000E+00  0.00000000E+00
  0.00000000E+00  0.00000000E+00  0.00000000E+00
  0.00000000E+00  0.00000000E+00  0.00000000E+00
  0.00000000E+00  0.00000000E+00  0.00000000E+00
  0.00000000E+00  0.00000000E+00  0.00000000E+00
  0.00000000E+00  0.00000000E+00  0.00000000E+00
  0.00000000E+00  0.00000000E+00  0.00000000E+00
  0.00000000E+00  0.00000000E+00  0.00000000E+00
  0.00000000E+00  0.00000000E+00  0.00000000E+00
  0.00000000E+00  0.00000000E+00  0.00000000E+00
  0.00000000E+00  0.00000000E+00  0.00000000E+00
  0.00000000E+00  0.00000000E+00  0.00000000E+00
  0.00000000E+00  0.00000000E+00  0.00000000E+00
  0.00000000E+00  0.00000000E+00  0.00000000E+00
  0.00000000E+00  0.00000000E+00  0.00000000E+00
  0.00000000E+00  0.00000000E+00  0.00000000E+00
  0.00000000E+00  0.00000000E+00  0.00000000E+00
  0.00000000E+00  0.00000000E+00  0.00000000E+00
  0.00000000E+00  0.00000000E+00  0.00000000E+00
  0.00000000E+00  0.00000000E+00  0.00000000E+00
  0.00000000E+00  0.00000000E+00  0.00000000E+00
  0.00000000E+00  0.00000000E+00  0.00000000E+00
  0.00000000E+00  0.00000000E+00  0.00000000E+00
  0.00000000E+00  0.00000000E+00  0.00000000E+00
  0.00000000E+00  0.00000000E+00  0.00000000E+00
  0.00000000E+00  0.00000000E+00  0.00000000E+00
  0.00000000E+00  0.00000000E+00  0.00000000E+00
  0.00000000E+00  0.00000000E+00  0.00000000E+00
  0.00000000E+00  0.00000000E+00  0.00000000E+00
  0.00000000E+00  0.00000000E+00  0.00000000E+00
  0.00000000E+00  0.00000000E+00  0.00000000E+00
  0.00000000E+00  0.00000000E+00  0.00000000E+00
  0.00000000E+00  0.00000000E+00  0.00000000E+00
  0.00000000E+00  0.00000000E+00  0.00000000E+00
  0.00000000E+00  0.00000000E+00  0.00000000E+00
  0.00000000E+00  0.00000000E+00  0.00000000E+00
  0.00000000E+00  0.00000000E+00  0.00000000E+00
  0.00000000E+00  0.00000000E+00  0.00000000E+00
  0.00000000E+00  0.00000000E+00  0.00000000E+00
  0.00000000E+00  0.00000000E+00  0.00000000E+00
  0.00000000E+00  0.00000000E+00  0.00000000E+00
  0.00000000E+00  0.00000000E+00  0.00000000E+00
  0.00000000E+00  0.00000000E+00  0.00000000E+00
  0.00000000E+00  0.00000000E+00  0.00000000E+00
  0.00000000E+00  0.00000000E+00  0.00000000E+00
  0.00000000E+00  0.00000000E+00  0.00000000E+00
  0.00000000E+00  0.00000000E+00  0.00000000E+00
  0.00000000E+00  0.00000000E+00  0.00000000E+00
  0.00000000E+00  0.00000000E+00  0.00000000E+00
  0.00000000E+00  0.00000000E+00  0.00000000E+00
  0.00000000E+00  0.00000000E+00  0.00000000E+00
  0.00000000E+00  0.00000000E+00  0.00000000E+00
  0.00000000E+00  0.00000000E+00  0.00000000E+00
  0.00000000E+00  0.00000000E+00  0.00000000E+00
  0.00000000E+00  0.00000000E+00  0.00000000E+00
