C Cu H O
1.0
 10.690900000000   0.000000000000   0.000000000000
  0.000000000000  10.690900000000   0.000000000000
  0.000000000000   0.000000000000  18.563700000000
C Cu H O
  2  54   3   3
Selective dynamics
Direct
  0.284527967163   0.126470728771   0.276590808958  T T T
  0.389712079821   0.212999470019   0.278741646862  T T T
  0.999502953463   0.999890473459   0.001299203720  F F F
  0.332835796617   0.999890473459   0.001299203720  F F F
  0.666168639771   0.999890473459   0.001299203720  F F F
  0.166169375040   0.166556895036   0.001299203720  F F F
  0.499502218194   0.166556895036   0.001299203720  F F F
  0.832835061348   0.166556895036   0.001299203720  F F F
  0.999502953463   0.333223316613   0.001299203720  F F F
  0.332835796617   0.333223316613   0.001299203720  F F F
  0.666168639771   0.333223316613   0.001299203720  F F F
  0.166169375040   0.499889738190   0.001299203720  F F F
  0.499502218194   0.499889738190   0.001299203720  F F F
  0.832835061348   0.499889738190   0.001299203720  F F F
  0.999502953463   0.666556159767   0.001299203720  F F F
  0.332835796617   0.666556159767   0.001299203720  F F F
  0.666168639771   0.666556159767   0.001299203720  F F F
  0.166169375040   0.833222581344   0.001299203720  F F F
  0.499502218194   0.833222581344   0.001299203720  F F F
  0.832835061348   0.833222581344   0.001299203720  F F F
  0.166010305507   0.000163168236   0.097718729254  T T T
  0.498150785483   0.001035413727   0.098456660546  T T T
  0.832646915034   0.999258417110   0.097040811765  T T T
  0.001572653722   0.166469456627   0.098017783432  T T T
  0.332724294258   0.166596744045   0.096172592016  T T T
  0.665740711719   0.167876072511   0.098544070744  T T T
  0.168230176480   0.331426522658   0.098931480159  T T T
  0.501034790080   0.333480829441   0.098960943649  T T T
  0.831251369939   0.333397692676   0.098480536101  T T T
  0.000258998773   0.499257839048   0.097300785588  T T T
  0.332801619217   0.498458923716   0.098070891518  T T T
  0.666087171005   0.498679466183   0.098585034421  T T T
  0.166374051735   0.665951762645   0.097296129780  T T T
  0.499141339513   0.667474797862   0.097242587964  T T T
  0.832780378898   0.666641634722   0.097202025672  T T T
  0.999370888182   0.832750290343   0.097316535998  T T T
  0.332421122487   0.835580059395   0.098476181083  T T T
  0.665656829374   0.833479940857   0.097287961655  T T T
  0.996592146050   0.996521404320   0.193746734733  T T T
  0.329014347488   0.997498245872   0.199702954320  T T T
  0.667519587883   0.998728792474   0.193407198321  T T T
  0.161450903209   0.164932918463   0.199057136672  T T T
  0.502070350466   0.165239855560   0.195602294230  T T T
  0.835227212352   0.164191845605   0.193061509847  T T T
  0.999148596314   0.333739268326   0.193600413875  T T T
  0.336293864060   0.335299017464   0.198472405479  T T T
  0.670395469390   0.335830972840   0.200358752320  T T T
  0.166772767743   0.499538938148   0.194071364869  T T T
  0.498894362590   0.505530656924   0.193272655297  T T T
  0.835558400701   0.503356765700   0.193506540703  T T T
  0.000065707942   0.666107880046   0.194237181812  T T T
  0.331819441783   0.667740892607   0.194242937534  T T T
  0.666359246666   0.668156420589   0.193665928915  T T T
  0.163858722392   0.830486248610   0.193679341419  T T T
  0.499071502383   0.834003903559   0.194098975550  T T T
  0.832513701505   0.831486785984   0.194360948025  T T T
  0.295648223893   0.128788796100   0.378581204040  T T T
  0.716484553727   0.282848586509   0.333295610996  T T T
  0.567630469264   0.304126562957   0.326732233208  T T T
  0.241764257716   0.087667609878   0.342206959200  T T T
  0.437856627196   0.246875058295   0.338820287470  T T T
  0.654550436589   0.338099631781   0.311578448949  T T T
