Cu H O                                  
   1.00000000000000     
    10.6908999999999992    0.0000000000000000    0.0000000000000000
     0.0000000000000000   10.6908999999999992    0.0000000000000000
     0.0000000000000000    0.0000000000000000   18.5637000000000008
   Cu   H    O 
    54     1     1
Selective dynamics
Direct
  0.9995029534630007  0.9998904734589971  0.0012992037200021   F   F   F
  0.3328357966169975  0.9998904734589971  0.0012992037200021   F   F   F
  0.6661686397710014  0.9998904734589971  0.0012992037200021   F   F   F
  0.1661693750399991  0.1665568950360026  0.0012992037200021   F   F   F
  0.4995022181940030  0.1665568950360026  0.0012992037200021   F   F   F
  0.8328350613479998  0.1665568950360026  0.0012992037200021   F   F   F
  0.9995029534630007  0.3332233166130010  0.0012992037200021   F   F   F
  0.3328357966169975  0.3332233166130010  0.0012992037200021   F   F   F
  0.6661686397710014  0.3332233166130010  0.0012992037200021   F   F   F
  0.1661693750399991  0.4998897381899994  0.0012992037200021   F   F   F
  0.4995022181940030  0.4998897381899994  0.0012992037200021   F   F   F
  0.8328350613479998  0.4998897381899994  0.0012992037200021   F   F   F
  0.9995029534630007  0.6665561597669978  0.0012992037200021   F   F   F
  0.3328357966169975  0.6665561597669978  0.0012992037200021   F   F   F
  0.6661686397710014  0.6665561597669978  0.0012992037200021   F   F   F
  0.1661693750399991  0.8332225813440033  0.0012992037200021   F   F   F
  0.4995022181940030  0.8332225813440033  0.0012992037200021   F   F   F
  0.8328350613479998  0.8332225813440033  0.0012992037200021   F   F   F
  0.1661612132950949  0.9996712427786634  0.0973684797575276   T   T   T
  0.4995800478571992  0.0011253259158923  0.0987971457973806   T   T   T
  0.8329849315573855  0.9996389162768053  0.0973574115496761   T   T   T
  0.9995918801167329  0.1668420138357705  0.0974232106872153   T   T   T
  0.3338498752591098  0.1672068841324638  0.0986913086843096   T   T   T
  0.6653140166041209  0.1671992255017968  0.0986961940896873   T   T   T
  0.1677200631491995  0.3330092990932458  0.0987835343394134   T   T   T
  0.4995886933858690  0.3329404012370732  0.0957595890677532   T   T   T
  0.8313815901942824  0.3329935186235651  0.0987963834392174   T   T   T
  0.9995747544383414  0.4991721541246482  0.0974516015104351   T   T   T
  0.3339043844784452  0.4987060083641635  0.0986922038448241   T   T   T
  0.6652200202501855  0.4986688569900517  0.0987105222560793   T   T   T
  0.1662492545071562  0.6662430513429830  0.0973901104697190   T   T   T
  0.4995543215711881  0.6648604663502958  0.0988015591807672   T   T   T
  0.8328629444850815  0.6662296979245995  0.0973848351334346   T   T   T
  0.9995977132947561  0.8329338160565725  0.0973726347513190   T   T   T
  0.3334329016058873  0.8330202489077906  0.0974671845113411   T   T   T
  0.6656759431481166  0.8329948819214715  0.0974525929043298   T   T   T
  0.9996402746031189  0.9986610805377621  0.1941042365233927   T   T   T
  0.3310380108119537  0.9980065659906889  0.1941372125162778   T   T   T
  0.6681887126145184  0.9979416259816435  0.1941209394053796   T   T   T
  0.1645907229548610  0.1646391709106947  0.1941078221438209   T   T   T
  0.4996496749059313  0.1608991615513316  0.1972301956199106   T   T   T
  0.8346886950904425  0.1645329189729633  0.1941007770453983   T   T   T
  0.9995799041287697  0.3330076204602289  0.1948386035186759   T   T   T
  0.3281398704389378  0.3327758402702163  0.1971565532576667   T   T   T
  0.6712354438017754  0.3327336419300981  0.1972475260102144   T   T   T
  0.1648638915358335  0.5010808310016795  0.1941340290346101   T   T   T
  0.4995972752204859  0.5040848516334637  0.1972015786488630   T   T   T
  0.8343658744539564  0.5011348343559413  0.1941391785220083   T   T   T
  0.9996390631806450  0.6667938572980870  0.1941311326695779   T   T   T
  0.3314419386258655  0.6676999510597558  0.1941437376727164   T   T   T
  0.6676904047839020  0.6676835822762311  0.1941318613917893   T   T   T
  0.1654504957529790  0.8327427464362721  0.1941222098007129   T   T   T
  0.4995942431755893  0.8331073925743042  0.1948618913907680   T   T   T
  0.8337865000775471  0.8326788486936665  0.1940926611049079   T   T   T
  0.4995913701151032  0.3309055981177934  0.3115372227077973   T   T   T
  0.4997085296137715  0.3315763625927697  0.2588892170993060   T   T   T
 
  0.00000000E+00  0.00000000E+00  0.00000000E+00
  0.00000000E+00  0.00000000E+00  0.00000000E+00
  0.00000000E+00  0.00000000E+00  0.00000000E+00
  0.00000000E+00  0.00000000E+00  0.00000000E+00
  0.00000000E+00  0.00000000E+00  0.00000000E+00
  0.00000000E+00  0.00000000E+00  0.00000000E+00
  0.00000000E+00  0.00000000E+00  0.00000000E+00
  0.00000000E+00  0.00000000E+00  0.00000000E+00
  0.00000000E+00  0.00000000E+00  0.00000000E+00
  0.00000000E+00  0.00000000E+00  0.00000000E+00
  0.00000000E+00  0.00000000E+00  0.00000000E+00
  0.00000000E+00  0.00000000E+00  0.00000000E+00
  0.00000000E+00  0.00000000E+00  0.00000000E+00
  0.00000000E+00  0.00000000E+00  0.00000000E+00
  0.00000000E+00  0.00000000E+00  0.00000000E+00
  0.00000000E+00  0.00000000E+00  0.00000000E+00
  0.00000000E+00  0.00000000E+00  0.00000000E+00
  0.00000000E+00  0.00000000E+00  0.00000000E+00
  0.00000000E+00  0.00000000E+00  0.00000000E+00
  0.00000000E+00  0.00000000E+00  0.00000000E+00
  0.00000000E+00  0.00000000E+00  0.00000000E+00
  0.00000000E+00  0.00000000E+00  0.00000000E+00
  0.00000000E+00  0.00000000E+00  0.00000000E+00
  0.00000000E+00  0.00000000E+00  0.00000000E+00
  0.00000000E+00  0.00000000E+00  0.00000000E+00
  0.00000000E+00  0.00000000E+00  0.00000000E+00
  0.00000000E+00  0.00000000E+00  0.00000000E+00
  0.00000000E+00  0.00000000E+00  0.00000000E+00
  0.00000000E+00  0.00000000E+00  0.00000000E+00
  0.00000000E+00  0.00000000E+00  0.00000000E+00
  0.00000000E+00  0.00000000E+00  0.00000000E+00
  0.00000000E+00  0.00000000E+00  0.00000000E+00
  0.00000000E+00  0.00000000E+00  0.00000000E+00
  0.00000000E+00  0.00000000E+00  0.00000000E+00
  0.00000000E+00  0.00000000E+00  0.00000000E+00
  0.00000000E+00  0.00000000E+00  0.00000000E+00
  0.00000000E+00  0.00000000E+00  0.00000000E+00
  0.00000000E+00  0.00000000E+00  0.00000000E+00
  0.00000000E+00  0.00000000E+00  0.00000000E+00
  0.00000000E+00  0.00000000E+00  0.00000000E+00
  0.00000000E+00  0.00000000E+00  0.00000000E+00
  0.00000000E+00  0.00000000E+00  0.00000000E+00
  0.00000000E+00  0.00000000E+00  0.00000000E+00
  0.00000000E+00  0.00000000E+00  0.00000000E+00
  0.00000000E+00  0.00000000E+00  0.00000000E+00
  0.00000000E+00  0.00000000E+00  0.00000000E+00
  0.00000000E+00  0.00000000E+00  0.00000000E+00
  0.00000000E+00  0.00000000E+00  0.00000000E+00
  0.00000000E+00  0.00000000E+00  0.00000000E+00
  0.00000000E+00  0.00000000E+00  0.00000000E+00
  0.00000000E+00  0.00000000E+00  0.00000000E+00
  0.00000000E+00  0.00000000E+00  0.00000000E+00
  0.00000000E+00  0.00000000E+00  0.00000000E+00
  0.00000000E+00  0.00000000E+00  0.00000000E+00
  0.00000000E+00  0.00000000E+00  0.00000000E+00
  0.00000000E+00  0.00000000E+00  0.00000000E+00
