C Cu H O                                
   1.00000000000000     
    10.6908999999999992    0.0000000000000000    0.0000000000000000
     0.0000000000000000   10.6908999999999992    0.0000000000000000
     0.0000000000000000    0.0000000000000000   18.5637000000000008
   C    Cu   H    O 
     2    54     1     2
Selective dynamics
Direct
  0.2795987041296873  0.1140763045374844  0.2811727771295257   T   T   T
  0.3762105278876010  0.2120098840688943  0.2757776159768612   T   T   T
  0.9995029534630007  0.9998904734589971  0.0012992037200021   F   F   F
  0.3328357966169975  0.9998904734589971  0.0012992037200021   F   F   F
  0.6661686397710014  0.9998904734589971  0.0012992037200021   F   F   F
  0.1661693750399991  0.1665568950360026  0.0012992037200021   F   F   F
  0.4995022181940030  0.1665568950360026  0.0012992037200021   F   F   F
  0.8328350613479998  0.1665568950360026  0.0012992037200021   F   F   F
  0.9995029534630007  0.3332233166130010  0.0012992037200021   F   F   F
  0.3328357966169975  0.3332233166130010  0.0012992037200021   F   F   F
  0.6661686397710014  0.3332233166130010  0.0012992037200021   F   F   F
  0.1661693750399991  0.4998897381899994  0.0012992037200021   F   F   F
  0.4995022181940030  0.4998897381899994  0.0012992037200021   F   F   F
  0.8328350613479998  0.4998897381899994  0.0012992037200021   F   F   F
  0.9995029534630007  0.6665561597669978  0.0012992037200021   F   F   F
  0.3328357966169975  0.6665561597669978  0.0012992037200021   F   F   F
  0.6661686397710014  0.6665561597669978  0.0012992037200021   F   F   F
  0.1661693750399991  0.8332225813440033  0.0012992037200021   F   F   F
  0.4995022181940030  0.8332225813440033  0.0012992037200021   F   F   F
  0.8328350613479998  0.8332225813440033  0.0012992037200021   F   F   F
  0.1661039399791066 -0.0000757564648048  0.0981454250815390   T   T   T
  0.4976663370286463  0.0015675978195271  0.0990832577981803   T   T   T
  0.8321695866322520  0.0001477349920247  0.0975247180603474   T   T   T
  0.0000653358103253  0.1664983989907206  0.0979991422330670   T   T   T
  0.3324868564985206  0.1663074487052416  0.0967151519682712   T   T   T
  0.6640112695269565  0.1668691746869487  0.0984809784336361   T   T   T
  0.1675272415834405  0.3316862992289871  0.0988939338690237   T   T   T
  0.4994027493829442  0.3332493473878814  0.0977075158523553   T   T   T
  0.8332208407590392  0.3333237447598235  0.0973977826518529   T   T   T
 -0.0001481442593918  0.4995948121498466  0.0974799342573689   T   T   T
  0.3330448439714925  0.4980904631891407  0.0983472822110933   T   T   T
  0.6663078974534518  0.5001787612753201  0.0974650901899033   T   T   T
  0.1661886024714657  0.6660712316756996  0.0974668505246931   T   T   T
  0.4995423558237732  0.6670506262034541  0.0974274539581996   T   T   T
  0.8326664190606379  0.6666931622867266  0.0973718283884797   T   T   T
  0.9992944247253833  0.8332455370188958  0.0974708172813987   T   T   T
  0.3327402291107312  0.8339747565835813  0.0980568661709716   T   T   T
  0.6655369498398466  0.8339711117088743  0.0975614853744902   T   T   T
  0.9963437677089199  0.9979624113242564  0.1938403052239566   T   T   T
  0.3298053318934059 -0.0037464875350952  0.1980306912637249   T   T   T
  0.6657105731112796  0.0001279051836845  0.1941916962613611   T   T   T
  0.1622660183675661  0.1641121538184969  0.1977677193478909   T   T   T
  0.5021115779323798  0.1689825636123289  0.1992020965168241   T   T   T
  0.8324771690598752  0.1666920078804923  0.1941971087144446   T   T   T
  0.9989000485119905  0.3335493436988774  0.1940199221511061   T   T   T
  0.3344296962437012  0.3367640177569946  0.1986969834674382   T   T   T
  0.6692757077354806  0.3355368702303294  0.1937495515422120   T   T   T
  0.1657258239123291  0.5001088443154302  0.1940369239039811   T   T   T
  0.5017554372272618  0.5029804993013884  0.1937290750825824   T   T   T
  0.8334613782673995  0.5009425027298229  0.1941801220661499   T   T   T
  0.9983924953883816  0.6660112183633224  0.1940533682830446   T   T   T
  0.3329575097951751  0.6662139231640094  0.1941663443996702   T   T   T
  0.6669621998218829  0.6674728739472003  0.1942282851330763   T   T   T
  0.1640454296639860  0.8299384989621085  0.1938111800119833   T   T   T
  0.4994589704817948  0.8329510504589591  0.1941146591968247   T   T   T
  0.8318463687565053  0.8327537098255319  0.1940852877206930   T   T   T
  0.3715355356462469  0.2107537537408525  0.3785131167503646   T   T   T
  0.2382473516828841  0.0731680400282260  0.3391694085248109   T   T   T
  0.4178225721145091  0.2561778936507119  0.3405357591696299   T   T   T
 
  0.00000000E+00  0.00000000E+00  0.00000000E+00
  0.00000000E+00  0.00000000E+00  0.00000000E+00
  0.00000000E+00  0.00000000E+00  0.00000000E+00
  0.00000000E+00  0.00000000E+00  0.00000000E+00
  0.00000000E+00  0.00000000E+00  0.00000000E+00
  0.00000000E+00  0.00000000E+00  0.00000000E+00
  0.00000000E+00  0.00000000E+00  0.00000000E+00
  0.00000000E+00  0.00000000E+00  0.00000000E+00
  0.00000000E+00  0.00000000E+00  0.00000000E+00
  0.00000000E+00  0.00000000E+00  0.00000000E+00
  0.00000000E+00  0.00000000E+00  0.00000000E+00
  0.00000000E+00  0.00000000E+00  0.00000000E+00
  0.00000000E+00  0.00000000E+00  0.00000000E+00
  0.00000000E+00  0.00000000E+00  0.00000000E+00
  0.00000000E+00  0.00000000E+00  0.00000000E+00
  0.00000000E+00  0.00000000E+00  0.00000000E+00
  0.00000000E+00  0.00000000E+00  0.00000000E+00
  0.00000000E+00  0.00000000E+00  0.00000000E+00
  0.00000000E+00  0.00000000E+00  0.00000000E+00
  0.00000000E+00  0.00000000E+00  0.00000000E+00
  0.00000000E+00  0.00000000E+00  0.00000000E+00
  0.00000000E+00  0.00000000E+00  0.00000000E+00
  0.00000000E+00  0.00000000E+00  0.00000000E+00
  0.00000000E+00  0.00000000E+00  0.00000000E+00
  0.00000000E+00  0.00000000E+00  0.00000000E+00
  0.00000000E+00  0.00000000E+00  0.00000000E+00
  0.00000000E+00  0.00000000E+00  0.00000000E+00
  0.00000000E+00  0.00000000E+00  0.00000000E+00
  0.00000000E+00  0.00000000E+00  0.00000000E+00
  0.00000000E+00  0.00000000E+00  0.00000000E+00
  0.00000000E+00  0.00000000E+00  0.00000000E+00
  0.00000000E+00  0.00000000E+00  0.00000000E+00
  0.00000000E+00  0.00000000E+00  0.00000000E+00
  0.00000000E+00  0.00000000E+00  0.00000000E+00
  0.00000000E+00  0.00000000E+00  0.00000000E+00
  0.00000000E+00  0.00000000E+00  0.00000000E+00
  0.00000000E+00  0.00000000E+00  0.00000000E+00
  0.00000000E+00  0.00000000E+00  0.00000000E+00
  0.00000000E+00  0.00000000E+00  0.00000000E+00
  0.00000000E+00  0.00000000E+00  0.00000000E+00
  0.00000000E+00  0.00000000E+00  0.00000000E+00
  0.00000000E+00  0.00000000E+00  0.00000000E+00
  0.00000000E+00  0.00000000E+00  0.00000000E+00
  0.00000000E+00  0.00000000E+00  0.00000000E+00
  0.00000000E+00  0.00000000E+00  0.00000000E+00
  0.00000000E+00  0.00000000E+00  0.00000000E+00
  0.00000000E+00  0.00000000E+00  0.00000000E+00
  0.00000000E+00  0.00000000E+00  0.00000000E+00
  0.00000000E+00  0.00000000E+00  0.00000000E+00
  0.00000000E+00  0.00000000E+00  0.00000000E+00
  0.00000000E+00  0.00000000E+00  0.00000000E+00
  0.00000000E+00  0.00000000E+00  0.00000000E+00
  0.00000000E+00  0.00000000E+00  0.00000000E+00
  0.00000000E+00  0.00000000E+00  0.00000000E+00
  0.00000000E+00  0.00000000E+00  0.00000000E+00
  0.00000000E+00  0.00000000E+00  0.00000000E+00
  0.00000000E+00  0.00000000E+00  0.00000000E+00
  0.00000000E+00  0.00000000E+00  0.00000000E+00
  0.00000000E+00  0.00000000E+00  0.00000000E+00
