C Cu H O                                
   1.00000000000000     
    10.6908999999999992    0.0000000000000000    0.0000000000000000
     0.0000000000000000   10.6908999999999992    0.0000000000000000
     0.0000000000000000    0.0000000000000000   18.5637000000000008
   C    Cu   H    O 
     2    54     1     2
Selective dynamics
Direct
  0.2835230125892124  0.1042348606819056  0.2999497733464727   T   T   T
  0.3462105398972259  0.1842331559774602  0.2560473492418645   T   T   T
  0.9995029534629865  0.9998904734589829  0.0012992037200021   F   F   F
  0.3328357966169975  0.9998904734589829  0.0012992037200021   F   F   F
  0.6661686397710014  0.9998904734589829  0.0012992037200021   F   F   F
  0.1661693750399991  0.1665568950360026  0.0012992037200021   F   F   F
  0.4995022181940030  0.1665568950360026  0.0012992037200021   F   F   F
  0.8328350613479998  0.1665568950360026  0.0012992037200021   F   F   F
  0.9995029534629865  0.3332233166130010  0.0012992037200021   F   F   F
  0.3328357966169975  0.3332233166130010  0.0012992037200021   F   F   F
  0.6661686397710014  0.3332233166130010  0.0012992037200021   F   F   F
  0.1661693750399991  0.4998897381899994  0.0012992037200021   F   F   F
  0.4995022181940030  0.4998897381899994  0.0012992037200021   F   F   F
  0.8328350613479998  0.4998897381899994  0.0012992037200021   F   F   F
  0.9995029534629865  0.6665561597669836  0.0012992037200021   F   F   F
  0.3328357966169975  0.6665561597669836  0.0012992037200021   F   F   F
  0.6661686397710014  0.6665561597669836  0.0012992037200021   F   F   F
  0.1661693750399991  0.8332225813440033  0.0012992037200021   F   F   F
  0.4995022181940030  0.8332225813440033  0.0012992037200021   F   F   F
  0.8328350613479998  0.8332225813440033  0.0012992037200021   F   F   F
  0.1677679796609388  0.0005745909299453  0.0987719113416812   T   T   T
  0.4985914401058862  0.9989211205775965  0.0977000979864358   T   T   T
  0.8334592399987238  0.0008195811091145  0.0973349214261979   T   T   T
  0.0023511946385187  0.1667578635395066  0.0988174324052434   T   T   T
  0.3330193316247404  0.1670672431068372  0.0961161566262875   T   T   T
  0.6637166307809285  0.1662449774360807  0.0986756294036499   T   T   T
  0.1674383215931179  0.3335626902472469  0.0984310113937317   T   T   T
  0.4989775326920592  0.3333890479763043  0.0984406230392301   T   T   T
  0.8333164523326005  0.3325860139345725  0.0973883896517851   T   T   T
  0.9987827963254585  0.5000924171689219  0.0972449705969698   T   T   T
  0.3329128985460955  0.4991777613955853  0.0983556600107579   T   T   T
  0.6662616122500227  0.4995112776860319  0.0978565359108884   T   T   T
  0.1659385583364920  0.6676785301448537  0.0972862420980349   T   T   T
  0.4997984857490263  0.6659578154557487  0.0976663546391649   T   T   T
  0.8327402998776438  0.6664752150898016  0.0973804907908509   T   T   T
  0.9996204806915802  0.8340274313989294  0.0974301750407674   T   T   T
  0.3331041403706054  0.8340511758004824  0.0982564692143627   T   T   T
  0.6667074901944320  0.8331246095732621  0.0973594813174441   T   T   T
  0.9994937831649114  0.0001449246800030  0.1939967915118774   T   T   T
  0.3331382462360731  0.9923296759786949  0.1995230141161853   T   T   T
  0.6675735985197980  0.9986952003408281  0.1934676057563599   T   T   T
  0.1680538298123298  0.1665051268376874  0.1984259555532882   T   T   T
  0.4997389462734803  0.1621104083664264  0.1965810992469027   T   T   T
  0.8332887328371423  0.1663999436729306  0.1943122801958885   T   T   T
  0.9995419299917470  0.3335256826316520  0.1938176219029091   T   T   T
  0.3292142338309689  0.3421385449656826  0.1983329980369538   T   T   T
  0.6677926590283074  0.3329370951895135  0.1935811025553710   T   T   T
  0.1619778650377841  0.5045670296849977  0.1932889542237515   T   T   T
  0.5022421958166355  0.5027698381560197  0.1949878277022989   T   T   T
  0.8334301187966239  0.4993373203804204  0.1943663190559562   T   T   T
  0.9968736636280335  0.6678530628005008  0.1940988442125462   T   T   T
  0.3327695305571203  0.6674293543390540  0.1941133148973317   T   T   T
  0.6687558745050766  0.6666282311466112  0.1944759220268486   T   T   T
  0.1643407008478592  0.8313999258602236  0.1943282025960899   T   T   T
  0.5018856560157685  0.8305771148803645  0.1938831809269024   T   T   T
  0.8333561703473946  0.8341608295729134  0.1941047905862128   T   T   T
  0.3362938621213409  0.3486115902394025  0.3391823540988025   T   T   T
  0.2420799839296738  0.0618745094907432  0.3549898287571697   T   T   T
  0.4013782486889452  0.3281692810865998  0.3037547696824615   T   T   T
 
  0.00000000E+00  0.00000000E+00  0.00000000E+00
  0.00000000E+00  0.00000000E+00  0.00000000E+00
  0.00000000E+00  0.00000000E+00  0.00000000E+00
  0.00000000E+00  0.00000000E+00  0.00000000E+00
  0.00000000E+00  0.00000000E+00  0.00000000E+00
  0.00000000E+00  0.00000000E+00  0.00000000E+00
  0.00000000E+00  0.00000000E+00  0.00000000E+00
  0.00000000E+00  0.00000000E+00  0.00000000E+00
  0.00000000E+00  0.00000000E+00  0.00000000E+00
  0.00000000E+00  0.00000000E+00  0.00000000E+00
  0.00000000E+00  0.00000000E+00  0.00000000E+00
  0.00000000E+00  0.00000000E+00  0.00000000E+00
  0.00000000E+00  0.00000000E+00  0.00000000E+00
  0.00000000E+00  0.00000000E+00  0.00000000E+00
  0.00000000E+00  0.00000000E+00  0.00000000E+00
  0.00000000E+00  0.00000000E+00  0.00000000E+00
  0.00000000E+00  0.00000000E+00  0.00000000E+00
  0.00000000E+00  0.00000000E+00  0.00000000E+00
  0.00000000E+00  0.00000000E+00  0.00000000E+00
  0.00000000E+00  0.00000000E+00  0.00000000E+00
  0.00000000E+00  0.00000000E+00  0.00000000E+00
  0.00000000E+00  0.00000000E+00  0.00000000E+00
  0.00000000E+00  0.00000000E+00  0.00000000E+00
  0.00000000E+00  0.00000000E+00  0.00000000E+00
  0.00000000E+00  0.00000000E+00  0.00000000E+00
  0.00000000E+00  0.00000000E+00  0.00000000E+00
  0.00000000E+00  0.00000000E+00  0.00000000E+00
  0.00000000E+00  0.00000000E+00  0.00000000E+00
  0.00000000E+00  0.00000000E+00  0.00000000E+00
  0.00000000E+00  0.00000000E+00  0.00000000E+00
  0.00000000E+00  0.00000000E+00  0.00000000E+00
  0.00000000E+00  0.00000000E+00  0.00000000E+00
  0.00000000E+00  0.00000000E+00  0.00000000E+00
  0.00000000E+00  0.00000000E+00  0.00000000E+00
  0.00000000E+00  0.00000000E+00  0.00000000E+00
  0.00000000E+00  0.00000000E+00  0.00000000E+00
  0.00000000E+00  0.00000000E+00  0.00000000E+00
  0.00000000E+00  0.00000000E+00  0.00000000E+00
  0.00000000E+00  0.00000000E+00  0.00000000E+00
  0.00000000E+00  0.00000000E+00  0.00000000E+00
  0.00000000E+00  0.00000000E+00  0.00000000E+00
  0.00000000E+00  0.00000000E+00  0.00000000E+00
  0.00000000E+00  0.00000000E+00  0.00000000E+00
  0.00000000E+00  0.00000000E+00  0.00000000E+00
  0.00000000E+00  0.00000000E+00  0.00000000E+00
  0.00000000E+00  0.00000000E+00  0.00000000E+00
  0.00000000E+00  0.00000000E+00  0.00000000E+00
  0.00000000E+00  0.00000000E+00  0.00000000E+00
  0.00000000E+00  0.00000000E+00  0.00000000E+00
  0.00000000E+00  0.00000000E+00  0.00000000E+00
  0.00000000E+00  0.00000000E+00  0.00000000E+00
  0.00000000E+00  0.00000000E+00  0.00000000E+00
  0.00000000E+00  0.00000000E+00  0.00000000E+00
  0.00000000E+00  0.00000000E+00  0.00000000E+00
  0.00000000E+00  0.00000000E+00  0.00000000E+00
  0.00000000E+00  0.00000000E+00  0.00000000E+00
  0.00000000E+00  0.00000000E+00  0.00000000E+00
  0.00000000E+00  0.00000000E+00  0.00000000E+00
  0.00000000E+00  0.00000000E+00  0.00000000E+00
