Cu                                      
   1.00000000000000     
    10.6908999999999992    0.0000000000000000    0.0000000000000000
     0.0000000000000000   10.6908999999999992    0.0000000000000000
     0.0000000000000000    0.0000000000000000   18.5637000000000008
   Cu
    54
Selective dynamics
Direct
  0.0000000000000000  0.0000000000000000  0.0000000000000000   F   F   F
  0.3333328431539968  0.0000000000000000  0.0000000000000000   F   F   F
  0.6666656863080007  0.0000000000000000  0.0000000000000000   F   F   F
  0.1666664215769984  0.1666664215769984  0.0000000000000000   F   F   F
  0.4999992647310023  0.1666664215769984  0.0000000000000000   F   F   F
  0.8333321078849991  0.1666664215769984  0.0000000000000000   F   F   F
  0.0000000000000000  0.3333328431539968  0.0000000000000000   F   F   F
  0.3333328431539968  0.3333328431539968  0.0000000000000000   F   F   F
  0.6666656863080007  0.3333328431539968  0.0000000000000000   F   F   F
  0.1666664215769984  0.4999992647310023  0.0000000000000000   F   F   F
  0.4999992647310023  0.4999992647310023  0.0000000000000000   F   F   F
  0.8333321078849991  0.4999992647310023  0.0000000000000000   F   F   F
  0.0000000000000000  0.6666656863080007  0.0000000000000000   F   F   F
  0.3333328431539968  0.6666656863080007  0.0000000000000000   F   F   F
  0.6666656863080007  0.6666656863080007  0.0000000000000000   F   F   F
  0.1666664215769984  0.8333321078849991  0.0000000000000000   F   F   F
  0.4999992647310023  0.8333321078849991  0.0000000000000000   F   F   F
  0.8333321078849991  0.8333321078849991  0.0000000000000000   F   F   F
  0.1666664215769984 -0.0000000000000000  0.0966221550349112   T   T   T
  0.4999992647310023 -0.0000000000000000  0.0966221550349112   T   T   T
  0.8333321078849991  0.0000000000000000  0.0966221550349112   T   T   T
 -0.0000000000000000  0.1666664215769984  0.0966221550349112   T   T   T
  0.3333328431539968  0.1666664215769984  0.0966221550349112   T   T   T
  0.6666656863080007  0.1666664215769984  0.0966221550349112   T   T   T
  0.1666664215769984  0.3333328431539968  0.0966221550349112   T   T   T
  0.4999992647310023  0.3333328431539968  0.0966221550349112   T   T   T
  0.8333321078849991  0.3333328431539968  0.0966221550349112   T   T   T
  0.0000000000000000  0.4999992647310023  0.0966221550349112   T   T   T
  0.3333328431539968  0.4999992647310023  0.0966221550349112   T   T   T
  0.6666656863080007  0.4999992647310023  0.0966221550349112   T   T   T
  0.1666664215769984  0.6666656863080007  0.0966221550349112   T   T   T
  0.4999992647310023  0.6666656863080007  0.0966221550349112   T   T   T
  0.8333321078849991  0.6666656863080007  0.0966221550349112   T   T   T
  0.0000000000000000  0.8333321078849991  0.0966221550349112   T   T   T
  0.3333328431539968  0.8333321078849991  0.0966221550349112   T   T   T
  0.6666656863080007  0.8333321078849991  0.0966221550349112   T   T   T
  0.0000000000000000 -0.0000000000000000  0.1932178686621296   T   T   T
  0.3333328431539968 -0.0000000000000000  0.1932178686621296   T   T   T
  0.6666656863080007  0.0000000000000000  0.1932178686621296   T   T   T
  0.1666664215769984  0.1666664215769984  0.1932178686621296   T   T   T
  0.4999992647310023  0.1666664215769984  0.1932178686621296   T   T   T
  0.8333321078849991  0.1666664215769984  0.1932178686621296   T   T   T
  0.0000000000000000  0.3333328431539968  0.1932178686621296   T   T   T
  0.3333328431539968  0.3333328431539968  0.1932178686621296   T   T   T
  0.6666656863080007  0.3333328431539968  0.1932178686621296   T   T   T
  0.1666664215769984  0.4999992647310023  0.1932178686621296   T   T   T
  0.4999992647310023  0.4999992647310023  0.1932178686621296   T   T   T
  0.8333321078849991  0.4999992647310023  0.1932178686621296   T   T   T
  0.0000000000000000  0.6666656863080007  0.1932178686621296   T   T   T
  0.3333328431539968  0.6666656863080007  0.1932178686621296   T   T   T
  0.6666656863080007  0.6666656863080007  0.1932178686621296   T   T   T
  0.1666664215769984  0.8333321078849991  0.1932178686621296   T   T   T
  0.4999992647310023  0.8333321078849991  0.1932178686621296   T   T   T
  0.8333321078849991  0.8333321078849991  0.1932178686621296   T   T   T
 
  0.00000000E+00  0.00000000E+00  0.00000000E+00
  0.00000000E+00  0.00000000E+00  0.00000000E+00
  0.00000000E+00  0.00000000E+00  0.00000000E+00
  0.00000000E+00  0.00000000E+00  0.00000000E+00
  0.00000000E+00  0.00000000E+00  0.00000000E+00
  0.00000000E+00  0.00000000E+00  0.00000000E+00
  0.00000000E+00  0.00000000E+00  0.00000000E+00
  0.00000000E+00  0.00000000E+00  0.00000000E+00
  0.00000000E+00  0.00000000E+00  0.00000000E+00
  0.00000000E+00  0.00000000E+00  0.00000000E+00
  0.00000000E+00  0.00000000E+00  0.00000000E+00
  0.00000000E+00  0.00000000E+00  0.00000000E+00
  0.00000000E+00  0.00000000E+00  0.00000000E+00
  0.00000000E+00  0.00000000E+00  0.00000000E+00
  0.00000000E+00  0.00000000E+00  0.00000000E+00
  0.00000000E+00  0.00000000E+00  0.00000000E+00
  0.00000000E+00  0.00000000E+00  0.00000000E+00
  0.00000000E+00  0.00000000E+00  0.00000000E+00
  0.00000000E+00  0.00000000E+00  0.00000000E+00
  0.00000000E+00  0.00000000E+00  0.00000000E+00
  0.00000000E+00  0.00000000E+00  0.00000000E+00
  0.00000000E+00  0.00000000E+00  0.00000000E+00
  0.00000000E+00  0.00000000E+00  0.00000000E+00
  0.00000000E+00  0.00000000E+00  0.00000000E+00
  0.00000000E+00  0.00000000E+00  0.00000000E+00
  0.00000000E+00  0.00000000E+00  0.00000000E+00
  0.00000000E+00  0.00000000E+00  0.00000000E+00
  0.00000000E+00  0.00000000E+00  0.00000000E+00
  0.00000000E+00  0.00000000E+00  0.00000000E+00
  0.00000000E+00  0.00000000E+00  0.00000000E+00
  0.00000000E+00  0.00000000E+00  0.00000000E+00
  0.00000000E+00  0.00000000E+00  0.00000000E+00
  0.00000000E+00  0.00000000E+00  0.00000000E+00
  0.00000000E+00  0.00000000E+00  0.00000000E+00
  0.00000000E+00  0.00000000E+00  0.00000000E+00
  0.00000000E+00  0.00000000E+00  0.00000000E+00
  0.00000000E+00  0.00000000E+00  0.00000000E+00
  0.00000000E+00  0.00000000E+00  0.00000000E+00
  0.00000000E+00  0.00000000E+00  0.00000000E+00
  0.00000000E+00  0.00000000E+00  0.00000000E+00
  0.00000000E+00  0.00000000E+00  0.00000000E+00
  0.00000000E+00  0.00000000E+00  0.00000000E+00
  0.00000000E+00  0.00000000E+00  0.00000000E+00
  0.00000000E+00  0.00000000E+00  0.00000000E+00
  0.00000000E+00  0.00000000E+00  0.00000000E+00
  0.00000000E+00  0.00000000E+00  0.00000000E+00
  0.00000000E+00  0.00000000E+00  0.00000000E+00
  0.00000000E+00  0.00000000E+00  0.00000000E+00
  0.00000000E+00  0.00000000E+00  0.00000000E+00
  0.00000000E+00  0.00000000E+00  0.00000000E+00
  0.00000000E+00  0.00000000E+00  0.00000000E+00
  0.00000000E+00  0.00000000E+00  0.00000000E+00
  0.00000000E+00  0.00000000E+00  0.00000000E+00
  0.00000000E+00  0.00000000E+00  0.00000000E+00
