C Cu H O                                
   1.00000000000000     
    10.6908999999999992    0.0000000000000000    0.0000000000000000
     0.0000000000000000   10.6908999999999992    0.0000000000000000
     0.0000000000000000    0.0000000000000000   18.5637000000000008
   C    Cu   H    O 
     2    54     2     2
Selective dynamics
Direct
  0.2866154886454421  0.1209639957153118  0.2784496313943072   T   T   T
  0.3804424366934597  0.2138372611974785  0.2763910446675880   T   T   T
  0.9995029534630007  0.9998904734589971  0.0012992037200021   F   F   F
  0.3328357966169975  0.9998904734589971  0.0012992037200021   F   F   F
  0.6661686397710014  0.9998904734589971  0.0012992037200021   F   F   F
  0.1661693750399991  0.1665568950360026  0.0012992037200021   F   F   F
  0.4995022181940030  0.1665568950360026  0.0012992037200021   F   F   F
  0.8328350613479998  0.1665568950360026  0.0012992037200021   F   F   F
  0.9995029534630007  0.3332233166130010  0.0012992037200021   F   F   F
  0.3328357966169975  0.3332233166130010  0.0012992037200021   F   F   F
  0.6661686397710014  0.3332233166130010  0.0012992037200021   F   F   F
  0.1661693750399991  0.4998897381899994  0.0012992037200021   F   F   F
  0.4995022181940030  0.4998897381899994  0.0012992037200021   F   F   F
  0.8328350613479998  0.4998897381899994  0.0012992037200021   F   F   F
  0.9995029534630007  0.6665561597669978  0.0012992037200021   F   F   F
  0.3328357966169975  0.6665561597669978  0.0012992037200021   F   F   F
  0.6661686397710014  0.6665561597669978  0.0012992037200021   F   F   F
  0.1661693750399991  0.8332225813440033  0.0012992037200021   F   F   F
  0.4995022181940030  0.8332225813440033  0.0012992037200021   F   F   F
  0.8328350613479998  0.8332225813440033  0.0012992037200021   F   F   F
  0.1661322935597960  0.9999473755933024  0.0979634910522527   T   T   T
  0.4975415069145177  0.0015346762131647  0.0989425196456650   T   T   T
  0.8324638841309715  0.0000086600541138  0.0973902504488629   T   T   T
  0.0014596239726769  0.1661278416468822  0.0986779851475668   T   T   T
  0.3327499629528448  0.1664428775176994  0.0961618901707172   T   T   T
  0.6643323537949309  0.1667906263053432  0.0983359052711906   T   T   T
  0.1677946545573918  0.3312342173690683  0.0989285317111541   T   T   T
  0.4996416812166586  0.3333893892264485  0.0975497045207103   T   T   T
  0.8333341939172021  0.3331143778378124  0.0972902796503116   T   T   T
  0.9996920012628884  0.4996699394645122  0.0974739545958954   T   T   T
  0.3330914425208760  0.4980387926226069  0.0983574609000910   T   T   T
  0.6664745133636240  0.5002634643045111  0.0973947671407194   T   T   T
  0.1662941072417827  0.6661532507346328  0.0973794264028311   T   T   T
  0.4993162831150951  0.6669839783471526  0.0973088921482981   T   T   T
  0.8328105173293161  0.6665412858740212  0.0974405131495102   T   T   T
  0.9993323801044348  0.8330700687037107  0.0975945449599923   T   T   T
  0.3324080000911305  0.8352941915735823  0.0986990865621837   T   T   T
  0.6658209658477573  0.8334464878595227  0.0975037944340040   T   T   T
  0.9961565767126072  0.9975416368090190  0.1940102619021273   T   T   T
  0.3302056136407784  0.9972087096828861  0.1993773317977415   T   T   T
  0.6665244206219608  0.9995079401745582  0.1937353120098929   T   T   T
  0.1631784622205082  0.1641599825225749  0.1993365478407978   T   T   T
  0.5031157153066619  0.1688189563292390  0.1981668206756119   T   T   T
  0.8324280478329873  0.1666894384864494  0.1942967940966644   T   T   T
  0.9989333818497405  0.3334900490189939  0.1937412252807032   T   T   T
  0.3349823491596766  0.3367443851444504  0.1982271600607354   T   T   T
  0.6693149443408181  0.3359631529083170  0.1938299290350818   T   T   T
  0.1657236790407555  0.5002710640273008  0.1937068115345158   T   T   T
  0.5021735201292505  0.5027835396713758  0.1938674191769018   T   T   T
  0.8333860763066314  0.5008934511185573  0.1943941424967533   T   T   T
  0.9984779854846020  0.6658567383266357  0.1943145821013344   T   T   T
  0.3330531867116934  0.6660633624124180  0.1943013610371137   T   T   T
  0.6669164207564432  0.6670804197198767  0.1943995179558667   T   T   T
  0.1639022350712944  0.8298952756466099  0.1939773715527436   T   T   T
  0.4995669265140301  0.8328088702165412  0.1937643776581641   T   T   T
  0.8320398891124972  0.8320997257707584  0.1943097227310359   T   T   T
  0.4860981294129224  0.3182762072809860  0.3350945280145603   T   T   T
  0.2880853472861687  0.1226378952972222  0.3818310475404291   T   T   T
  0.2431823020132111  0.0781140688495741  0.3432529869792600   T   T   T
  0.4218187164900513  0.2548662375193159  0.3431491189966803   T   T   T
 
  0.00000000E+00  0.00000000E+00  0.00000000E+00
  0.00000000E+00  0.00000000E+00  0.00000000E+00
  0.00000000E+00  0.00000000E+00  0.00000000E+00
  0.00000000E+00  0.00000000E+00  0.00000000E+00
  0.00000000E+00  0.00000000E+00  0.00000000E+00
  0.00000000E+00  0.00000000E+00  0.00000000E+00
  0.00000000E+00  0.00000000E+00  0.00000000E+00
  0.00000000E+00  0.00000000E+00  0.00000000E+00
  0.00000000E+00  0.00000000E+00  0.00000000E+00
  0.00000000E+00  0.00000000E+00  0.00000000E+00
  0.00000000E+00  0.00000000E+00  0.00000000E+00
  0.00000000E+00  0.00000000E+00  0.00000000E+00
  0.00000000E+00  0.00000000E+00  0.00000000E+00
  0.00000000E+00  0.00000000E+00  0.00000000E+00
  0.00000000E+00  0.00000000E+00  0.00000000E+00
  0.00000000E+00  0.00000000E+00  0.00000000E+00
  0.00000000E+00  0.00000000E+00  0.00000000E+00
  0.00000000E+00  0.00000000E+00  0.00000000E+00
  0.00000000E+00  0.00000000E+00  0.00000000E+00
  0.00000000E+00  0.00000000E+00  0.00000000E+00
  0.00000000E+00  0.00000000E+00  0.00000000E+00
  0.00000000E+00  0.00000000E+00  0.00000000E+00
  0.00000000E+00  0.00000000E+00  0.00000000E+00
  0.00000000E+00  0.00000000E+00  0.00000000E+00
  0.00000000E+00  0.00000000E+00  0.00000000E+00
  0.00000000E+00  0.00000000E+00  0.00000000E+00
  0.00000000E+00  0.00000000E+00  0.00000000E+00
  0.00000000E+00  0.00000000E+00  0.00000000E+00
  0.00000000E+00  0.00000000E+00  0.00000000E+00
  0.00000000E+00  0.00000000E+00  0.00000000E+00
  0.00000000E+00  0.00000000E+00  0.00000000E+00
  0.00000000E+00  0.00000000E+00  0.00000000E+00
  0.00000000E+00  0.00000000E+00  0.00000000E+00
  0.00000000E+00  0.00000000E+00  0.00000000E+00
  0.00000000E+00  0.00000000E+00  0.00000000E+00
  0.00000000E+00  0.00000000E+00  0.00000000E+00
  0.00000000E+00  0.00000000E+00  0.00000000E+00
  0.00000000E+00  0.00000000E+00  0.00000000E+00
  0.00000000E+00  0.00000000E+00  0.00000000E+00
  0.00000000E+00  0.00000000E+00  0.00000000E+00
  0.00000000E+00  0.00000000E+00  0.00000000E+00
  0.00000000E+00  0.00000000E+00  0.00000000E+00
  0.00000000E+00  0.00000000E+00  0.00000000E+00
  0.00000000E+00  0.00000000E+00  0.00000000E+00
  0.00000000E+00  0.00000000E+00  0.00000000E+00
  0.00000000E+00  0.00000000E+00  0.00000000E+00
  0.00000000E+00  0.00000000E+00  0.00000000E+00
  0.00000000E+00  0.00000000E+00  0.00000000E+00
  0.00000000E+00  0.00000000E+00  0.00000000E+00
  0.00000000E+00  0.00000000E+00  0.00000000E+00
  0.00000000E+00  0.00000000E+00  0.00000000E+00
  0.00000000E+00  0.00000000E+00  0.00000000E+00
  0.00000000E+00  0.00000000E+00  0.00000000E+00
  0.00000000E+00  0.00000000E+00  0.00000000E+00
  0.00000000E+00  0.00000000E+00  0.00000000E+00
  0.00000000E+00  0.00000000E+00  0.00000000E+00
  0.00000000E+00  0.00000000E+00  0.00000000E+00
  0.00000000E+00  0.00000000E+00  0.00000000E+00
  0.00000000E+00  0.00000000E+00  0.00000000E+00
  0.00000000E+00  0.00000000E+00  0.00000000E+00
