Cu C O H                                
   1.00000000000000     
     5.0397299999999996    0.0000000000000000    0.0000000000000000
     0.0000000000000000    6.1723800000000004    0.0000000000000000
     0.0000000000000000    0.0000000000000000   20.0000000000000000
   Cu   C    O    H 
    18     2     2     1
Selective dynamics
Direct
  0.0000000000000000  0.3333335988249999  0.0363711269190006   F   F   F
  0.5000001170890016  0.3333335988249999  0.0363711269190006   F   F   F
  0.2500000585449982  0.6666671976489980  0.0727422538380011   F   F   F
  0.7500001756339998  0.6666671976489980  0.0727422538380011   F   F   F
  0.0000000000000000  0.0000000000000000  0.1091133807570017   F   F   F
  0.5000001170890016  0.0000000000000000  0.1091133807570017   F   F   F
  0.2522346479259038  0.3325969491145463  0.1455580696137594   T   T   T
  0.7484264046350002  0.3324629287453573  0.1456170431568318   T   T   T
  0.0006439596878597  0.6724174530599104  0.1831210342556705   T   T   T
  0.5006635730119787  0.6720399063847975  0.1821549952976359   T   T   T
  0.2556306358870435  0.0063609706348489  0.2207437307089689   T   T   T
  0.7464650667299270  0.0063735238707958  0.2207615594203063   T   T   T
  0.0008341574696236  0.3376431987646983  0.2545329276934290   T   T   T
  0.5013046108037846  0.3452348067893615  0.2591521803890322   T   T   T
  0.2399056588129098  0.6663642894796724  0.2946899022450697   T   T   T
  0.7626704301187557  0.6670572713448685  0.2947869525797648   T   T   T
  0.0018745055333598  0.0061217202470754  0.3239779073940413   T   T   T
  0.5020079070176453  0.9901524557956122  0.3343346223459299   T   T   T
  0.4971145867942872  0.4912540636889487  0.3539766455621673   T   T   T
  0.5114561008499026  0.6954233458851607  0.3872494145075302   T   T   T
  0.5198515848480301  0.7393348230636372  0.4478682975086929   T   T   T
  0.4938576009082005  0.3054865830630931  0.3950937218487755   T   T   T
  0.5090190848214157  0.3485085938260682  0.4423863367002435   T   T   T
 
  0.00000000E+00  0.00000000E+00  0.00000000E+00
  0.00000000E+00  0.00000000E+00  0.00000000E+00
  0.00000000E+00  0.00000000E+00  0.00000000E+00
  0.00000000E+00  0.00000000E+00  0.00000000E+00
  0.00000000E+00  0.00000000E+00  0.00000000E+00
  0.00000000E+00  0.00000000E+00  0.00000000E+00
  0.00000000E+00  0.00000000E+00  0.00000000E+00
  0.00000000E+00  0.00000000E+00  0.00000000E+00
  0.00000000E+00  0.00000000E+00  0.00000000E+00
  0.00000000E+00  0.00000000E+00  0.00000000E+00
  0.00000000E+00  0.00000000E+00  0.00000000E+00
  0.00000000E+00  0.00000000E+00  0.00000000E+00
  0.00000000E+00  0.00000000E+00  0.00000000E+00
  0.00000000E+00  0.00000000E+00  0.00000000E+00
  0.00000000E+00  0.00000000E+00  0.00000000E+00
  0.00000000E+00  0.00000000E+00  0.00000000E+00
  0.00000000E+00  0.00000000E+00  0.00000000E+00
  0.00000000E+00  0.00000000E+00  0.00000000E+00
  0.00000000E+00  0.00000000E+00  0.00000000E+00
  0.00000000E+00  0.00000000E+00  0.00000000E+00
  0.00000000E+00  0.00000000E+00  0.00000000E+00
  0.00000000E+00  0.00000000E+00  0.00000000E+00
  0.00000000E+00  0.00000000E+00  0.00000000E+00
