Cu C O H                                
   1.00000000000000     
     5.0397299999999996    0.0000000000000000    0.0000000000000000
     0.0000000000000000    6.1723800000000004    0.0000000000000000
     0.0000000000000000    0.0000000000000000   20.0000000000000000
   Cu   C    O    H 
    18     2     2     1
Selective dynamics
Direct
  0.0000000000000000  0.3333335988249999  0.0363711269190006   F   F   F
  0.5000001170890016  0.3333335988249999  0.0363711269190006   F   F   F
  0.2500000585449982  0.6666671976489980  0.0727422538380011   F   F   F
  0.7500001756339998  0.6666671976489980  0.0727422538380011   F   F   F
  0.0000000000000000  0.0000000000000000  0.1091133807570017   F   F   F
  0.5000001170890016  0.0000000000000000  0.1091133807570017   F   F   F
  0.2514873503748462  0.3334440257247310  0.1447975244045807   T   T   T
  0.7486554635318465  0.3335609216164895  0.1448375899859647   T   T   T
  0.0003607116779590  0.6738743844207586  0.1840703507451930   T   T   T
  0.5002103969205666  0.6726722972963601  0.1831979853172757   T   T   T
  0.2541517750647631  0.0075900696813952  0.2206904209021973   T   T   T
  0.7462913577336964  0.0079664813042340  0.2206367279371239   T   T   T
  0.0002554127913716  0.3400986145736560  0.2535909733838395   T   T   T
  0.4999807114543147  0.3441110533282110  0.2575704726460665   T   T   T
  0.2406119127251730  0.6698816633623232  0.2961569618419749   T   T   T
  0.7613426421368579  0.6706139007384144  0.2956882194659498   T   T   T
  0.0008793077819914  0.0108717196078572  0.3245267945113890   T   T   T
  0.5007686796147893 -0.0096063828819983  0.3409421431873457   T   T   T
  0.5010227091557611  0.4662452265892639  0.3533448402370233   T   T   T
  0.5045520188539797  0.6788295674350882  0.3808633077453908   T   T   T
  0.5094087024983419  0.6993767199778510  0.4491093946152788   T   T   T
  0.5020072009782514  0.2871027196006500  0.3883852580087073   T   T   T
  0.5104200957940340  0.5514266244735238  0.4678270452423210   T   T   T
 
  0.00000000E+00  0.00000000E+00  0.00000000E+00
  0.00000000E+00  0.00000000E+00  0.00000000E+00
  0.00000000E+00  0.00000000E+00  0.00000000E+00
  0.00000000E+00  0.00000000E+00  0.00000000E+00
  0.00000000E+00  0.00000000E+00  0.00000000E+00
  0.00000000E+00  0.00000000E+00  0.00000000E+00
  0.00000000E+00  0.00000000E+00  0.00000000E+00
  0.00000000E+00  0.00000000E+00  0.00000000E+00
  0.00000000E+00  0.00000000E+00  0.00000000E+00
  0.00000000E+00  0.00000000E+00  0.00000000E+00
  0.00000000E+00  0.00000000E+00  0.00000000E+00
  0.00000000E+00  0.00000000E+00  0.00000000E+00
  0.00000000E+00  0.00000000E+00  0.00000000E+00
  0.00000000E+00  0.00000000E+00  0.00000000E+00
  0.00000000E+00  0.00000000E+00  0.00000000E+00
  0.00000000E+00  0.00000000E+00  0.00000000E+00
  0.00000000E+00  0.00000000E+00  0.00000000E+00
  0.00000000E+00  0.00000000E+00  0.00000000E+00
  0.00000000E+00  0.00000000E+00  0.00000000E+00
  0.00000000E+00  0.00000000E+00  0.00000000E+00
  0.00000000E+00  0.00000000E+00  0.00000000E+00
  0.00000000E+00  0.00000000E+00  0.00000000E+00
  0.00000000E+00  0.00000000E+00  0.00000000E+00
