Cu                                      
   1.00000000000000     
     5.0397299999999996    0.0000000000000000    0.0000000000000000
     0.0000000000000000    6.1723800000000004    0.0000000000000000
     0.0000000000000000    0.0000000000000000   20.0000000000000000
   Cu
    18
Selective dynamics
Direct
  0.0000000000000000  0.3333335988249999  0.0363711269190006   F   F   F
  0.5000001170890016  0.3333335988249999  0.0363711269190006   F   F   F
  0.2500000585449982  0.6666671976489980  0.0727422538380011   F   F   F
  0.7500001756339998  0.6666671976489980  0.0727422538380011   F   F   F
  0.0000000000000000  0.0000000000000000  0.1091133807570017   F   F   F
  0.5000001170890016  0.0000000000000000  0.1091133807570017   F   F   F
  0.2500000585449982  0.3334172326353255  0.1455435751920529   T   T   T
  0.7500001756339998  0.3334172326353255  0.1455435751920529   T   T   T
  0.0000000000000000  0.6707228694063213  0.1832582112818530   T   T   T
  0.5000001170890016  0.6707228694063213  0.1832582112818530   T   T   T
  0.2500000585449982  0.0101132174228161  0.2194433579826859   T   T   T
  0.7500001756339998  0.0101132174228161  0.2194433579826859   T   T   T
  0.0000000000000000  0.3439521826123452  0.2580746674940164   T   T   T
  0.5000001170890016  0.3439521826123452  0.2580746674940164   T   T   T
  0.2500000585449982  0.6725664449060667  0.2939990481862131   T   T   T
  0.7500001756339998  0.6725664449060667  0.2939990481862131   T   T   T
  0.0000000000000000  0.0051535830664738  0.3261038245341059   T   T   T
  0.5000001170890016  0.0051535830664738  0.3261038245341059   T   T   T
 
  0.00000000E+00  0.00000000E+00  0.00000000E+00
  0.00000000E+00  0.00000000E+00  0.00000000E+00
  0.00000000E+00  0.00000000E+00  0.00000000E+00
  0.00000000E+00  0.00000000E+00  0.00000000E+00
  0.00000000E+00  0.00000000E+00  0.00000000E+00
  0.00000000E+00  0.00000000E+00  0.00000000E+00
  0.00000000E+00  0.00000000E+00  0.00000000E+00
  0.00000000E+00  0.00000000E+00  0.00000000E+00
  0.00000000E+00  0.00000000E+00  0.00000000E+00
  0.00000000E+00  0.00000000E+00  0.00000000E+00
  0.00000000E+00  0.00000000E+00  0.00000000E+00
  0.00000000E+00  0.00000000E+00  0.00000000E+00
  0.00000000E+00  0.00000000E+00  0.00000000E+00
  0.00000000E+00  0.00000000E+00  0.00000000E+00
  0.00000000E+00  0.00000000E+00  0.00000000E+00
  0.00000000E+00  0.00000000E+00  0.00000000E+00
  0.00000000E+00  0.00000000E+00  0.00000000E+00
  0.00000000E+00  0.00000000E+00  0.00000000E+00
