Cu O H                                  
   1.00000000000000     
     5.0397299999999996    0.0000000000000000    0.0000000000000000
     0.0000000000000000    6.1723800000000004    0.0000000000000000
     0.0000000000000000    0.0000000000000000   20.0000000000000000
   Cu   O    H 
    18     1     1
Selective dynamics
Direct
  0.0000000000000000  0.3333335988249999  0.0363711269190006   F   F   F
  0.5000001170890016  0.3333335988249999  0.0363711269190006   F   F   F
  0.2500000585449982  0.6666671976489980  0.0727422538380011   F   F   F
  0.7500001756339998  0.6666671976489980  0.0727422538380011   F   F   F
  0.0000000000000000  0.0000000000000000  0.1091133807570017   F   F   F
  0.5000001170890016  0.0000000000000000  0.1091133807570017   F   F   F
  0.2500099945837655  0.3327396491164437  0.1449587202826710   T   T   T
  0.7500113318629010  0.3330187425762570  0.1451083079342109   T   T   T
  0.0002430730183550  0.6726907140230004  0.1824983412458231   T   T   T
  0.4997255059579919  0.6727242621495545  0.1824796056969993   T   T   T
  0.2500244963607329  0.0107131588766060  0.2225419813518467   T   T   T
  0.7499990037815248  0.0108964988892894  0.2201494753975974   T   T   T
  0.0007967646585762  0.3445764781898288  0.2566481620742933   T   T   T
  0.4991891643931335  0.3445339978402265  0.2566582313070170   T   T   T
  0.2499329269452309  0.6728925333362670  0.2919979564215580   T   T   T
  0.7499956719068254  0.6712246126646058  0.2909987713036779   T   T   T
  0.0059131302651436  0.0094209174554038  0.3300986534141516   T   T   T
  0.4941005858887479  0.0094301374651954  0.3301077093233871   T   T   T
  0.7499653118687692  0.0366790532557511  0.4026950989124786   T   T   T
  0.7500269416651459  0.9117185039368112  0.4325543936679520   T   T   T
 
  0.00000000E+00  0.00000000E+00  0.00000000E+00
  0.00000000E+00  0.00000000E+00  0.00000000E+00
  0.00000000E+00  0.00000000E+00  0.00000000E+00
  0.00000000E+00  0.00000000E+00  0.00000000E+00
  0.00000000E+00  0.00000000E+00  0.00000000E+00
  0.00000000E+00  0.00000000E+00  0.00000000E+00
  0.00000000E+00  0.00000000E+00  0.00000000E+00
  0.00000000E+00  0.00000000E+00  0.00000000E+00
  0.00000000E+00  0.00000000E+00  0.00000000E+00
  0.00000000E+00  0.00000000E+00  0.00000000E+00
  0.00000000E+00  0.00000000E+00  0.00000000E+00
  0.00000000E+00  0.00000000E+00  0.00000000E+00
  0.00000000E+00  0.00000000E+00  0.00000000E+00
  0.00000000E+00  0.00000000E+00  0.00000000E+00
  0.00000000E+00  0.00000000E+00  0.00000000E+00
  0.00000000E+00  0.00000000E+00  0.00000000E+00
  0.00000000E+00  0.00000000E+00  0.00000000E+00
  0.00000000E+00  0.00000000E+00  0.00000000E+00
  0.00000000E+00  0.00000000E+00  0.00000000E+00
  0.00000000E+00  0.00000000E+00  0.00000000E+00
