Cu C O H                                
   1.00000000000000     
     5.0397299999999996    0.0000000000000000    0.0000000000000000
     0.0000000000000000    6.1723800000000004    0.0000000000000000
     0.0000000000000000    0.0000000000000000   20.0000000000000000
   Cu   C    O    H 
    18     2     2     1
Selective dynamics
Direct
  0.0000000000000000  0.3333335988249999  0.0363711269190006   F   F   F
  0.5000001170890016  0.3333335988249999  0.0363711269190006   F   F   F
  0.2500000585449982  0.6666671976489980  0.0727422538380011   F   F   F
  0.7500001756339998  0.6666671976489980  0.0727422538380011   F   F   F
  0.0000000000000000  0.0000000000000000  0.1091133807570017   F   F   F
  0.5000001170890016  0.0000000000000000  0.1091133807570017   F   F   F
  0.2507172829326021  0.3319101241370232  0.1448853053453202   T   T   T
  0.7478456462280864  0.3325024076804220  0.1455019250301245   T   T   T
  0.9982252079428313  0.6728563248224775  0.1837137310675547   T   T   T
  0.4993432279269768  0.6710222385382117  0.1832358115471473   T   T   T
  0.2495641134142693  0.0024460033227030  0.2201944804950292   T   T   T
  0.7501555291681267  0.0037207905822064  0.2214401117498669   T   T   T
  0.9975029682699280  0.3445523661322560  0.2532478230073042   T   T   T
  0.5039992395964944  0.3401356798096281  0.2562107708919170   T   T   T
  0.2420292034928183  0.6706149763836721  0.2973355310423277   T   T   T
  0.7509051732768063  0.6781815789406563  0.2993144238740921   T   T   T
  0.9971320084283263  0.0164683758951775  0.3286024772336287   T   T   T
  0.5039727111952483  0.0062830114411410  0.3302698279720216   T   T   T
  0.4080901441476160  0.4340002099254435  0.3481541969126923   T   T   T
  0.6195026641415025  0.5028853911581094  0.3864695992663045   T   T   T
  0.7400004245931830  0.4924152881891656  0.4387332593374406   T   T   T
  0.2429304760946781  0.2119977883075025  0.3848209984258745   T   T   T
  0.2093215600796840  0.2372292946830808  0.4325677566477911   T   T   T
 
  0.00000000E+00  0.00000000E+00  0.00000000E+00
  0.00000000E+00  0.00000000E+00  0.00000000E+00
  0.00000000E+00  0.00000000E+00  0.00000000E+00
  0.00000000E+00  0.00000000E+00  0.00000000E+00
  0.00000000E+00  0.00000000E+00  0.00000000E+00
  0.00000000E+00  0.00000000E+00  0.00000000E+00
  0.00000000E+00  0.00000000E+00  0.00000000E+00
  0.00000000E+00  0.00000000E+00  0.00000000E+00
  0.00000000E+00  0.00000000E+00  0.00000000E+00
  0.00000000E+00  0.00000000E+00  0.00000000E+00
  0.00000000E+00  0.00000000E+00  0.00000000E+00
  0.00000000E+00  0.00000000E+00  0.00000000E+00
  0.00000000E+00  0.00000000E+00  0.00000000E+00
  0.00000000E+00  0.00000000E+00  0.00000000E+00
  0.00000000E+00  0.00000000E+00  0.00000000E+00
  0.00000000E+00  0.00000000E+00  0.00000000E+00
  0.00000000E+00  0.00000000E+00  0.00000000E+00
  0.00000000E+00  0.00000000E+00  0.00000000E+00
  0.00000000E+00  0.00000000E+00  0.00000000E+00
  0.00000000E+00  0.00000000E+00  0.00000000E+00
  0.00000000E+00  0.00000000E+00  0.00000000E+00
  0.00000000E+00  0.00000000E+00  0.00000000E+00
  0.00000000E+00  0.00000000E+00  0.00000000E+00
