Cu C O                                  
   1.00000000000000     
     5.0397299999999996    0.0000000000000000    0.0000000000000000
     0.0000000000000000    6.1723800000000004    0.0000000000000000
     0.0000000000000000    0.0000000000000000   20.0000000000000000
   Cu   C    O 
    18     2     1
Selective dynamics
Direct
  0.0000000000000000  0.3333335988249999  0.0363711269190006   F   F   F
  0.5000001170890016  0.3333335988249999  0.0363711269190006   F   F   F
  0.2500000585449982  0.6666671976489980  0.0727422538380011   F   F   F
  0.7500001756339998  0.6666671976489980  0.0727422538380011   F   F   F
  0.0000000000000000  0.0000000000000000  0.1091133807570017   F   F   F
  0.5000001170890016  0.0000000000000000  0.1091133807570017   F   F   F
  0.2500171588074531  0.3338014452644672  0.1477841327694557   T   T   T
  0.7499991878431701  0.3311230886729016  0.1455804512590512   T   T   T
  0.0000390582599365  0.6689568703196699  0.1829199725116913   T   T   T
  0.4999512620609445  0.6689599247933962  0.1829113506214783   T   T   T
  0.2499705287512114  0.0102416693352835  0.2191359681214811   T   T   T
  0.7499948206171297  0.0022274139080636  0.2172827524461412   T   T   T
  0.0014644209249891  0.3491144358877306  0.2594247014139495   T   T   T
  0.4985521330825379  0.3491098681127119  0.2594108902672670   T   T   T
  0.2499690717382089  0.6891807476136531  0.2928550398146179   T   T   T
  0.7500248807553026  0.6776254224966883  0.2941401614104220   T   T   T
  0.0000076758298202  0.0128816799764147  0.3278787671533041   T   T   T
  0.4999164939375415  0.0129116720742799  0.3278705086811889   T   T   T
  0.7499761628631448  0.2695230267332160  0.3392272151978306   T   T   T
  0.7498838645783301  0.3631452832568345  0.3990390758913928   T   T   T
  0.7498314573536268  0.4424190987178072  0.4527946873076741   T   T   T
 
  0.00000000E+00  0.00000000E+00  0.00000000E+00
  0.00000000E+00  0.00000000E+00  0.00000000E+00
  0.00000000E+00  0.00000000E+00  0.00000000E+00
  0.00000000E+00  0.00000000E+00  0.00000000E+00
  0.00000000E+00  0.00000000E+00  0.00000000E+00
  0.00000000E+00  0.00000000E+00  0.00000000E+00
  0.00000000E+00  0.00000000E+00  0.00000000E+00
  0.00000000E+00  0.00000000E+00  0.00000000E+00
  0.00000000E+00  0.00000000E+00  0.00000000E+00
  0.00000000E+00  0.00000000E+00  0.00000000E+00
  0.00000000E+00  0.00000000E+00  0.00000000E+00
  0.00000000E+00  0.00000000E+00  0.00000000E+00
  0.00000000E+00  0.00000000E+00  0.00000000E+00
  0.00000000E+00  0.00000000E+00  0.00000000E+00
  0.00000000E+00  0.00000000E+00  0.00000000E+00
  0.00000000E+00  0.00000000E+00  0.00000000E+00
  0.00000000E+00  0.00000000E+00  0.00000000E+00
  0.00000000E+00  0.00000000E+00  0.00000000E+00
  0.00000000E+00  0.00000000E+00  0.00000000E+00
  0.00000000E+00  0.00000000E+00  0.00000000E+00
  0.00000000E+00  0.00000000E+00  0.00000000E+00
