Cu                                      
   1.00000000000000     
     5.0397299999999996    0.0000000000000000    0.0000000000000000
     0.0000000000000000   15.5335000000000001    0.0000000000000000
     0.0000000000000000    0.0000000000000000   20.0000000000000000
   Cu
    42
Selective dynamics
Direct
  0.2519994759709974  0.6316110067100027  0.1118453994720028   F   F   F
  0.7519995930599990  0.6316110067100027  0.1118453994720028   F   F   F
  0.2519994759709974  0.4737163234449966  0.1407502401520020   F   F   F
  0.7519995930599990  0.4737163234449966  0.1407502401520020   F   F   F
  0.2519994759709974  0.3158216401790028  0.1696550808320012   F   F   F
  0.7519995930599990  0.3158216401790028  0.1696550808320012   F   F   F
  0.0019994174259992  0.7368741288870027  0.1841075011730027   F   F   F
  0.5019995345160027  0.7368741288870027  0.1841075011730027   F   F   F
  0.2519994759709974  0.1579269569139967  0.1985599215130023   F   F   F
  0.7519995930599990  0.1579269569139967  0.1985599215130023   F   F   F
  0.0019994174259992  0.5783878841874490  0.2127245084534147   T   T   T
  0.5019995345160027  0.5783878841874490  0.2127245084534147   T   T   T
  0.2519994759709974  0.0000322736480030  0.2274647621930015   F   F   F
  0.7519995930599990  0.0000322736480030  0.2274647621930015   F   F   F
  0.0019994174259992  0.4216908841547942  0.2427225776036475   T   T   T
  0.5019995345160027  0.4216908841547942  0.2427225776036475   T   T   T
  0.2519994759709974  0.8421372510640026  0.2563696028740026   F   F   F
  0.7519995930599990  0.8421372510640026  0.2563696028740026   F   F   F
  0.0019994174259992  0.2636582958797842  0.2713288220150478   T   T   T
  0.5019995345160027  0.2636582958797842  0.2713288220150478   T   T   T
  0.2519994759709974  0.6833801523345975  0.2864670473023476   T   T   T
  0.7519995930599990  0.6833801523345975  0.2864670473023476   T   T   T
  0.0019994174259992  0.1056569114527323  0.2999418251674008   T   T   T
  0.5019995345160027  0.1056569114527323  0.2999418251674008   T   T   T
  0.2519994759709974  0.5250465051893075  0.3178776835047589   T   T   T
  0.7519995930599990  0.5250465051893075  0.3178776835047589   T   T   T
  0.0019994174259992  0.9474003732410026  0.3286317045750025   F   F   F
  0.5019995345160027  0.9474003732410026  0.3286317045750025   F   F   F
  0.2519994759709974  0.3684524433058664  0.3447931351000972   T   T   T
  0.7519995930599990  0.3684524433058664  0.3447931351000972   T   T   T
  0.0019994174259992  0.7904829098064884  0.3586820107745937   T   T   T
  0.5019995345160027  0.7904829098064884  0.3586820107745937   T   T   T
  0.2519994759709974  0.2110348132880373  0.3729158976854179   T   T   T
  0.7519995930599990  0.2110348132880373  0.3729158976854179   T   T   T
  0.0019994174259992  0.6294584666126194  0.3887931515382485   T   T   T
  0.5019995345160027  0.6294584666126194  0.3887931515382485   T   T   T
  0.2519994759709974  0.0537353359633776  0.4013053409751203   T   T   T
  0.7519995930599990  0.0537353359633776  0.4013053409751203   T   T   T
  0.2519994759709974  0.8974065965374665  0.4303864968546875   T   T   T
  0.7519995930599990  0.8974065965374665  0.4303864968546875   T   T   T
  0.2519994759709974  0.7382045885455805  0.4563273461434944   T   T   T
  0.7519995930599990  0.7382045885455805  0.4563273461434944   T   T   T
 
  0.00000000E+00  0.00000000E+00  0.00000000E+00
  0.00000000E+00  0.00000000E+00  0.00000000E+00
  0.00000000E+00  0.00000000E+00  0.00000000E+00
  0.00000000E+00  0.00000000E+00  0.00000000E+00
  0.00000000E+00  0.00000000E+00  0.00000000E+00
  0.00000000E+00  0.00000000E+00  0.00000000E+00
  0.00000000E+00  0.00000000E+00  0.00000000E+00
  0.00000000E+00  0.00000000E+00  0.00000000E+00
  0.00000000E+00  0.00000000E+00  0.00000000E+00
  0.00000000E+00  0.00000000E+00  0.00000000E+00
  0.00000000E+00  0.00000000E+00  0.00000000E+00
  0.00000000E+00  0.00000000E+00  0.00000000E+00
  0.00000000E+00  0.00000000E+00  0.00000000E+00
  0.00000000E+00  0.00000000E+00  0.00000000E+00
  0.00000000E+00  0.00000000E+00  0.00000000E+00
  0.00000000E+00  0.00000000E+00  0.00000000E+00
  0.00000000E+00  0.00000000E+00  0.00000000E+00
  0.00000000E+00  0.00000000E+00  0.00000000E+00
  0.00000000E+00  0.00000000E+00  0.00000000E+00
  0.00000000E+00  0.00000000E+00  0.00000000E+00
  0.00000000E+00  0.00000000E+00  0.00000000E+00
  0.00000000E+00  0.00000000E+00  0.00000000E+00
  0.00000000E+00  0.00000000E+00  0.00000000E+00
  0.00000000E+00  0.00000000E+00  0.00000000E+00
  0.00000000E+00  0.00000000E+00  0.00000000E+00
  0.00000000E+00  0.00000000E+00  0.00000000E+00
  0.00000000E+00  0.00000000E+00  0.00000000E+00
  0.00000000E+00  0.00000000E+00  0.00000000E+00
  0.00000000E+00  0.00000000E+00  0.00000000E+00
  0.00000000E+00  0.00000000E+00  0.00000000E+00
  0.00000000E+00  0.00000000E+00  0.00000000E+00
  0.00000000E+00  0.00000000E+00  0.00000000E+00
  0.00000000E+00  0.00000000E+00  0.00000000E+00
  0.00000000E+00  0.00000000E+00  0.00000000E+00
  0.00000000E+00  0.00000000E+00  0.00000000E+00
  0.00000000E+00  0.00000000E+00  0.00000000E+00
  0.00000000E+00  0.00000000E+00  0.00000000E+00
  0.00000000E+00  0.00000000E+00  0.00000000E+00
  0.00000000E+00  0.00000000E+00  0.00000000E+00
  0.00000000E+00  0.00000000E+00  0.00000000E+00
  0.00000000E+00  0.00000000E+00  0.00000000E+00
  0.00000000E+00  0.00000000E+00  0.00000000E+00
