C Cu H O                                
   1.00000000000000     
     5.0397299999999996    0.0000000000000000    0.0000000000000000
     0.0000000000000000   15.5335000000000001    0.0000000000000000
     0.0000000000000000    0.0000000000000000   20.0000000000000000
   C    Cu   H    O 
     2    42     1     2
Selective dynamics
Direct
  0.6396569370972764  0.4891310723750251  0.4090603660552884   T   T   T
  0.4056561421014789  0.4357105334331988  0.4217412514039122   T   T   T
  0.2509997672580013  0.6315948698860012  0.1131489099060019   F   F   F
  0.7509998843470029  0.6315948698860012  0.1131489099060019   F   F   F
  0.2509997672580013  0.4737001866210022  0.1420537505860011   F   F   F
  0.7509998843470029  0.4737001866210022  0.1420537505860011   F   F   F
  0.2509997672580013  0.3158055033550013  0.1709585912670022   F   F   F
  0.7509998843470029  0.3158055033550013  0.1709585912670022   F   F   F
  0.0009997087130031  0.7368579920630012  0.1854110116070018   F   F   F
  0.5009998258029995  0.7368579920630012  0.1854110116070018   F   F   F
  0.2509997672580013  0.1579108200900023  0.1998634319470014   F   F   F
  0.7509998843470029  0.1579108200900023  0.1998634319470014   F   F   F
  0.0013158620924810  0.5781179315547104  0.2148775598495063   T   T   T
  0.5032522082719255  0.5784000901414270  0.2141893879488560   T   T   T
  0.2509997672580013  0.0000161368240015  0.2287682726270006   F   F   F
  0.7509998843470029  0.0000161368240015  0.2287682726270006   F   F   F
  0.9984461990783502  0.4213807527519491  0.2436929718070450   T   T   T
  0.4986668859238372  0.4214784811458173  0.2430908010825702   T   T   T
  0.2509997672580013  0.8421211142400011  0.2576731133080017   F   F   F
  0.7509998843470029  0.8421211142400011  0.2576731133080017   F   F   F
  0.9969382333626711  0.2653473258275524  0.2730420192248723   T   T   T
  0.4983093574186630  0.2645380447820900  0.2727764127777101   T   T   T
  0.2540608865056219  0.6833869325696261  0.2878803965726741   T   T   T
  0.7541754831693870  0.6841017085477664  0.2876862270467458   T   T   T
  0.0008591221768711  0.1053097594876942  0.3009669338550555   T   T   T
  0.5007340477056843  0.1058017827673231  0.3008802915384594   T   T   T
  0.2515740529051833  0.5257963583949461  0.3185694968035702   T   T   T
  0.7606437257674636  0.5269166047261750  0.3194874621513063   T   T   T
  0.0009997087130031  0.9473842364170011  0.3299352150090016   F   F   F
  0.5009998258029995  0.9473842364170011  0.3299352150090016   F   F   F
  0.2354141419747902  0.3690882767457764  0.3482347201100324   T   T   T
  0.7383257618724151  0.3706984234528369  0.3494316293061563   T   T   T
  0.0039009397807293  0.7911030472019531  0.3602981598890256   T   T   T
  0.5045512540622271  0.7894585875775950  0.3602520293969114   T   T   T
  0.2494295417527976  0.2103257459472379  0.3733270872901450   T   T   T
  0.7508184680175305  0.2116135755448857  0.3731393850549521   T   T   T
  0.0121583792537905  0.6343884749391624  0.3907635305350901   T   T   T
  0.5071147601472439  0.6269502905686180  0.3918337667253303   T   T   T
  0.2508739036953473  0.0540134949809534  0.4026325755316386   T   T   T
  0.7509576917568226  0.0546842273596422  0.4024105957922715   T   T   T
  0.2525020287655300  0.8984233589317154  0.4318951944377327   T   T   T
  0.7518400760900169  0.8989306448588079  0.4318331918916701   T   T   T
  0.2590480089921494  0.7402792849944635  0.4583974774587987   T   T   T
  0.7564996118238296  0.7412488442237937  0.4587371136661811   T   T   T
  0.7015491805241377  0.4803589631766199  0.5044846829934893   T   T   T
  0.7895941041484026  0.5073626606772874  0.4657334903286640   T   T   T
  0.3250058429552873  0.4155023964812167  0.4781425079528563   T   T   T
 
  0.00000000E+00  0.00000000E+00  0.00000000E+00
  0.00000000E+00  0.00000000E+00  0.00000000E+00
  0.00000000E+00  0.00000000E+00  0.00000000E+00
  0.00000000E+00  0.00000000E+00  0.00000000E+00
  0.00000000E+00  0.00000000E+00  0.00000000E+00
  0.00000000E+00  0.00000000E+00  0.00000000E+00
  0.00000000E+00  0.00000000E+00  0.00000000E+00
  0.00000000E+00  0.00000000E+00  0.00000000E+00
  0.00000000E+00  0.00000000E+00  0.00000000E+00
  0.00000000E+00  0.00000000E+00  0.00000000E+00
  0.00000000E+00  0.00000000E+00  0.00000000E+00
  0.00000000E+00  0.00000000E+00  0.00000000E+00
  0.00000000E+00  0.00000000E+00  0.00000000E+00
  0.00000000E+00  0.00000000E+00  0.00000000E+00
  0.00000000E+00  0.00000000E+00  0.00000000E+00
  0.00000000E+00  0.00000000E+00  0.00000000E+00
  0.00000000E+00  0.00000000E+00  0.00000000E+00
  0.00000000E+00  0.00000000E+00  0.00000000E+00
  0.00000000E+00  0.00000000E+00  0.00000000E+00
  0.00000000E+00  0.00000000E+00  0.00000000E+00
  0.00000000E+00  0.00000000E+00  0.00000000E+00
  0.00000000E+00  0.00000000E+00  0.00000000E+00
  0.00000000E+00  0.00000000E+00  0.00000000E+00
  0.00000000E+00  0.00000000E+00  0.00000000E+00
  0.00000000E+00  0.00000000E+00  0.00000000E+00
  0.00000000E+00  0.00000000E+00  0.00000000E+00
  0.00000000E+00  0.00000000E+00  0.00000000E+00
  0.00000000E+00  0.00000000E+00  0.00000000E+00
  0.00000000E+00  0.00000000E+00  0.00000000E+00
  0.00000000E+00  0.00000000E+00  0.00000000E+00
  0.00000000E+00  0.00000000E+00  0.00000000E+00
  0.00000000E+00  0.00000000E+00  0.00000000E+00
  0.00000000E+00  0.00000000E+00  0.00000000E+00
  0.00000000E+00  0.00000000E+00  0.00000000E+00
  0.00000000E+00  0.00000000E+00  0.00000000E+00
  0.00000000E+00  0.00000000E+00  0.00000000E+00
  0.00000000E+00  0.00000000E+00  0.00000000E+00
  0.00000000E+00  0.00000000E+00  0.00000000E+00
  0.00000000E+00  0.00000000E+00  0.00000000E+00
  0.00000000E+00  0.00000000E+00  0.00000000E+00
  0.00000000E+00  0.00000000E+00  0.00000000E+00
  0.00000000E+00  0.00000000E+00  0.00000000E+00
  0.00000000E+00  0.00000000E+00  0.00000000E+00
  0.00000000E+00  0.00000000E+00  0.00000000E+00
  0.00000000E+00  0.00000000E+00  0.00000000E+00
  0.00000000E+00  0.00000000E+00  0.00000000E+00
  0.00000000E+00  0.00000000E+00  0.00000000E+00
