Cu O H                                  
   1.00000000000000     
     5.0397299999999996    0.0000000000000000    0.0000000000000000
     0.0000000000000000   15.5335000000000001    0.0000000000000000
     0.0000000000000000    0.0000000000000000   20.0000000000000000
   Cu   O    H 
    42     1     1
Selective dynamics
Direct
  0.2519994759709974  0.6316110067100027  0.1118453994720028   F   F   F
  0.7519995930599990  0.6316110067100027  0.1118453994720028   F   F   F
  0.2519994759709974  0.4737163234449966  0.1407502401520020   F   F   F
  0.7519995930599990  0.4737163234449966  0.1407502401520020   F   F   F
  0.2519994759709974  0.3158216401790028  0.1696550808320012   F   F   F
  0.7519995930599990  0.3158216401790028  0.1696550808320012   F   F   F
  0.0019994174259992  0.7368741288870027  0.1841075011730027   F   F   F
  0.5019995345160027  0.7368741288870027  0.1841075011730027   F   F   F
  0.2519994759709974  0.1579269569139967  0.1985599215130023   F   F   F
  0.7519995930599990  0.1579269569139967  0.1985599215130023   F   F   F
  0.0021027071254966  0.5785956117751927  0.2118448568772019   T   T   T
  0.5020871865445606  0.5784569715233135  0.2120286932097819   T   T   T
  0.2519994759709974  0.0000322736480030  0.2274647621930015   F   F   F
  0.7519995930599990  0.0000322736480030  0.2274647621930015   F   F   F
  0.0021618565740325  0.4206050355886803  0.2448052725096322   T   T   T
  0.5021815607422563  0.4213709116815528  0.2431917333005587   T   T   T
  0.2519994759709974  0.8421372510640026  0.2563696028740026   F   F   F
  0.7519995930599990  0.8421372510640026  0.2563696028740026   F   F   F
  0.0021508528552528  0.2654087929180875  0.2722173335479941   T   T   T
  0.5021711713956730  0.2641463036954453  0.2714260865605143   T   T   T
  0.2522788380656694  0.6841010350137238  0.2861661504278039   T   T   T
  0.7519880558111564  0.6841046382103255  0.2861690720928874   T   T   T
  0.0020828738762072  0.1048307678684761  0.2992498513334563   T   T   T
  0.5020760470984367  0.1053739155239369  0.2995138145246489   T   T   T
  0.2511890623974116  0.5274167735483997  0.3156375803857897   T   T   T
  0.7532066714757359  0.5274444327782791  0.3156335870023603   T   T   T
  0.0019994174259992  0.9474003732410026  0.3286317045750025   F   F   F
  0.5019995345160027  0.9474003732410026  0.3286317045750025   F   F   F
  0.2451820018991137  0.3695101451324192  0.3495539448552718   T   T   T
  0.7594706354887760  0.3695411844395868  0.3495357070500339   T   T   T
  0.0020673293971478  0.7905251102584553  0.3587263767657097   T   T   T
  0.5020623595976165  0.7907714252027801  0.3589011461997301   T   T   T
  0.2500119249579338  0.2078074925908543  0.3720149583916139   T   T   T
  0.7544651920145771  0.2078457272872115  0.3719942567924180   T   T   T
  0.0022032478144906  0.6297298070248881  0.3883783612144501   T   T   T
  0.5022027230971490  0.6297085652090028  0.3883735852993490   T   T   T
  0.2521248267096605  0.0528035708501019  0.4016188732204560   T   T   T
  0.7518407574592814  0.0528305337505369  0.4016154588827003   T   T   T
  0.2523169850223748  0.8970355300822760  0.4305793273063628   T   T   T
  0.7516862408741085  0.8970548041955287  0.4305750855051491   T   T   T
  0.2521742248350772  0.7378917430158157  0.4564098154319432   T   T   T
  0.7520515026885970  0.7379007395587627  0.4564081579928651   T   T   T
  0.5024205084215304  0.3881129995865382  0.4223011686597855   T   T   T
  0.5026393512184905  0.3409681886245999  0.4546371408516565   T   T   T
 
  0.00000000E+00  0.00000000E+00  0.00000000E+00
  0.00000000E+00  0.00000000E+00  0.00000000E+00
  0.00000000E+00  0.00000000E+00  0.00000000E+00
  0.00000000E+00  0.00000000E+00  0.00000000E+00
  0.00000000E+00  0.00000000E+00  0.00000000E+00
  0.00000000E+00  0.00000000E+00  0.00000000E+00
  0.00000000E+00  0.00000000E+00  0.00000000E+00
  0.00000000E+00  0.00000000E+00  0.00000000E+00
  0.00000000E+00  0.00000000E+00  0.00000000E+00
  0.00000000E+00  0.00000000E+00  0.00000000E+00
  0.00000000E+00  0.00000000E+00  0.00000000E+00
  0.00000000E+00  0.00000000E+00  0.00000000E+00
  0.00000000E+00  0.00000000E+00  0.00000000E+00
  0.00000000E+00  0.00000000E+00  0.00000000E+00
  0.00000000E+00  0.00000000E+00  0.00000000E+00
  0.00000000E+00  0.00000000E+00  0.00000000E+00
  0.00000000E+00  0.00000000E+00  0.00000000E+00
  0.00000000E+00  0.00000000E+00  0.00000000E+00
  0.00000000E+00  0.00000000E+00  0.00000000E+00
  0.00000000E+00  0.00000000E+00  0.00000000E+00
  0.00000000E+00  0.00000000E+00  0.00000000E+00
  0.00000000E+00  0.00000000E+00  0.00000000E+00
  0.00000000E+00  0.00000000E+00  0.00000000E+00
  0.00000000E+00  0.00000000E+00  0.00000000E+00
  0.00000000E+00  0.00000000E+00  0.00000000E+00
  0.00000000E+00  0.00000000E+00  0.00000000E+00
  0.00000000E+00  0.00000000E+00  0.00000000E+00
  0.00000000E+00  0.00000000E+00  0.00000000E+00
  0.00000000E+00  0.00000000E+00  0.00000000E+00
  0.00000000E+00  0.00000000E+00  0.00000000E+00
  0.00000000E+00  0.00000000E+00  0.00000000E+00
  0.00000000E+00  0.00000000E+00  0.00000000E+00
  0.00000000E+00  0.00000000E+00  0.00000000E+00
  0.00000000E+00  0.00000000E+00  0.00000000E+00
  0.00000000E+00  0.00000000E+00  0.00000000E+00
  0.00000000E+00  0.00000000E+00  0.00000000E+00
  0.00000000E+00  0.00000000E+00  0.00000000E+00
  0.00000000E+00  0.00000000E+00  0.00000000E+00
  0.00000000E+00  0.00000000E+00  0.00000000E+00
  0.00000000E+00  0.00000000E+00  0.00000000E+00
  0.00000000E+00  0.00000000E+00  0.00000000E+00
  0.00000000E+00  0.00000000E+00  0.00000000E+00
  0.00000000E+00  0.00000000E+00  0.00000000E+00
  0.00000000E+00  0.00000000E+00  0.00000000E+00
