C Cu H O                                
   1.00000000000000     
     5.0397299999999996    0.0000000000000000    0.0000000000000000
     0.0000000000000000   15.5335000000000001    0.0000000000000000
     0.0000000000000000    0.0000000000000000   20.0000000000000000
   C    Cu   H    O 
     2    42     1     2
Selective dynamics
Direct
  0.5010466180218132  0.3539953886936469  0.4267741145993266   T   T   T
  0.5006175734473248  0.2636315267183905  0.4484177600502927   T   T   T
  0.2510201497560018  0.6315950514229982  0.1144770827360020   F   F   F
  0.7510202668450034  0.6315950514229982  0.1144770827360020   F   F   F
  0.2510201497560018  0.4737003681579992  0.1433819234160012   F   F   F
  0.7510202668450034  0.4737003681579992  0.1433819234160012   F   F   F
  0.2510201497560018  0.3158056848919983  0.1722867640970023   F   F   F
  0.7510202668450034  0.3158056848919983  0.1722867640970023   F   F   F
  0.0010200912109966  0.7368581735999982  0.1867391844370019   F   F   F
  0.5010202083010000  0.7368581735999982  0.1867391844370019   F   F   F
  0.2510201497560018  0.1579110016269993  0.2011916047770015   F   F   F
  0.7510202668450034  0.1579110016269993  0.2011916047770015   F   F   F
  0.0010663671200893  0.5787572107468671  0.2143719229423590   T   T   T
  0.5010566091221356  0.5785828051157136  0.2147357039579522   T   T   T
  0.2510201497560018  0.0000163183609985  0.2300964454570007   F   F   F
  0.7510202668450034  0.0000163183609985  0.2300964454570007   F   F   F
  0.0010196768852842  0.4205947228689125  0.2465741665704636   T   T   T
  0.5010127459455062  0.4215157412665435  0.2446818038818233   T   T   T
  0.2510201497560018  0.8421212957769981  0.2590012861380018   F   F   F
  0.7510202668450034  0.8421212957769981  0.2590012861380018   F   F   F
  0.0009480550901518  0.2643855771127915  0.2755885920586096   T   T   T
  0.5009518804599238  0.2631678302086208  0.2727378753062775   T   T   T
  0.2508002204480977  0.6839876714712472  0.2888756300295378   T   T   T
  0.7512111121467194  0.6839972747280735  0.2888726651062418   T   T   T
  0.0009836656194921  0.1067194546162915  0.3027586780907792   T   T   T
  0.5010103086310104  0.1056586048850517  0.3026318105738762   T   T   T
  0.2498155295197809  0.5273052542295338  0.3183636248996297   T   T   T
  0.7522221289025074  0.5273160192965705  0.3183509271808782   T   T   T
  0.0010200912109966  0.9473844179539981  0.3312633878390017   F   F   F
  0.5010202083010000  0.9473844179539981  0.3312633878390017   F   F   F
  0.2493550989694509  0.3720885995680491  0.3503664170161179   T   T   T
  0.7525809305782192  0.3720866041985135  0.3503679153282288   T   T   T
  0.0009745574666847  0.7904708197390842  0.3613889538844199   T   T   T
  0.5009660127889662  0.7902662065233392  0.3613996920706614   T   T   T
  0.2500442471334002  0.2092547263968947  0.3784374937846638   T   T   T
  0.7516504489188639  0.2092673784473949  0.3784678431073519   T   T   T
  0.0009651797603706  0.6291579784988012  0.3911892246883247   T   T   T
  0.5009706446220776  0.6294114501493238  0.3909808014199107   T   T   T
  0.2498510965113330  0.0515957730653058  0.4038516019455767   T   T   T
  0.7522531396200226  0.0515908130802350  0.4038521143649754   T   T   T
  0.2513698652439464  0.8963835745327063  0.4332442378751706   T   T   T
  0.7505287125475332  0.8963769297812003  0.4332448798218119   T   T   T
  0.2512145151207499  0.7376023091816668  0.4589796757523552   T   T   T
  0.7506494292338284  0.7376001254765936  0.4589799933820137   T   T   T
  0.5007761370738999  0.3799408353495805  0.5200547604774916   T   T   T
  0.5010922069550612  0.4128112433999355  0.4777577477518057   T   T   T
  0.5002643760937685  0.2397843388830231  0.5077538112849647   T   T   T
 
  0.00000000E+00  0.00000000E+00  0.00000000E+00
  0.00000000E+00  0.00000000E+00  0.00000000E+00
  0.00000000E+00  0.00000000E+00  0.00000000E+00
  0.00000000E+00  0.00000000E+00  0.00000000E+00
  0.00000000E+00  0.00000000E+00  0.00000000E+00
  0.00000000E+00  0.00000000E+00  0.00000000E+00
  0.00000000E+00  0.00000000E+00  0.00000000E+00
  0.00000000E+00  0.00000000E+00  0.00000000E+00
  0.00000000E+00  0.00000000E+00  0.00000000E+00
  0.00000000E+00  0.00000000E+00  0.00000000E+00
  0.00000000E+00  0.00000000E+00  0.00000000E+00
  0.00000000E+00  0.00000000E+00  0.00000000E+00
  0.00000000E+00  0.00000000E+00  0.00000000E+00
  0.00000000E+00  0.00000000E+00  0.00000000E+00
  0.00000000E+00  0.00000000E+00  0.00000000E+00
  0.00000000E+00  0.00000000E+00  0.00000000E+00
  0.00000000E+00  0.00000000E+00  0.00000000E+00
  0.00000000E+00  0.00000000E+00  0.00000000E+00
  0.00000000E+00  0.00000000E+00  0.00000000E+00
  0.00000000E+00  0.00000000E+00  0.00000000E+00
  0.00000000E+00  0.00000000E+00  0.00000000E+00
  0.00000000E+00  0.00000000E+00  0.00000000E+00
  0.00000000E+00  0.00000000E+00  0.00000000E+00
  0.00000000E+00  0.00000000E+00  0.00000000E+00
  0.00000000E+00  0.00000000E+00  0.00000000E+00
  0.00000000E+00  0.00000000E+00  0.00000000E+00
  0.00000000E+00  0.00000000E+00  0.00000000E+00
  0.00000000E+00  0.00000000E+00  0.00000000E+00
  0.00000000E+00  0.00000000E+00  0.00000000E+00
  0.00000000E+00  0.00000000E+00  0.00000000E+00
  0.00000000E+00  0.00000000E+00  0.00000000E+00
  0.00000000E+00  0.00000000E+00  0.00000000E+00
  0.00000000E+00  0.00000000E+00  0.00000000E+00
  0.00000000E+00  0.00000000E+00  0.00000000E+00
  0.00000000E+00  0.00000000E+00  0.00000000E+00
  0.00000000E+00  0.00000000E+00  0.00000000E+00
  0.00000000E+00  0.00000000E+00  0.00000000E+00
  0.00000000E+00  0.00000000E+00  0.00000000E+00
  0.00000000E+00  0.00000000E+00  0.00000000E+00
  0.00000000E+00  0.00000000E+00  0.00000000E+00
  0.00000000E+00  0.00000000E+00  0.00000000E+00
  0.00000000E+00  0.00000000E+00  0.00000000E+00
  0.00000000E+00  0.00000000E+00  0.00000000E+00
  0.00000000E+00  0.00000000E+00  0.00000000E+00
  0.00000000E+00  0.00000000E+00  0.00000000E+00
  0.00000000E+00  0.00000000E+00  0.00000000E+00
  0.00000000E+00  0.00000000E+00  0.00000000E+00
