C Cu O                                  
   1.00000000000000     
     5.0397299999999996    0.0000000000000000    0.0000000000000000
     0.0000000000000000   15.5335000000000001    0.0000000000000000
     0.0000000000000000    0.0000000000000000   20.0000000000000000
   C    Cu   O 
     2    42     1
Selective dynamics
Direct
  0.5010198881338931  0.3044889144953847  0.4115971168299292   T   T   T
  0.5063178661152756  0.3245146260183158  0.4760390478964878   T   T   T
  0.2500000585449982  0.6315787330619997  0.1144524203400010   F   F   F
  0.7500001756339998  0.6315787330619997  0.1144524203400010   F   F   F
  0.2500000585449982  0.4736840497970007  0.1433572610200002   F   F   F
  0.7500001756339998  0.4736840497970007  0.1433572610200002   F   F   F
  0.2500000585449982  0.3157893665309999  0.1722621017010013   F   F   F
  0.7500001756339998  0.3157893665309999  0.1722621017010013   F   F   F
  0.0000000000000000  0.7368418552389997  0.1867145220410009   F   F   F
  0.5000001170890016  0.7368418552389997  0.1867145220410009   F   F   F
  0.2500000585449982  0.1578946832660009  0.2011669423810005   F   F   F
  0.7500001756339998  0.1578946832660009  0.2011669423810005   F   F   F
  0.0000153825926365  0.5784353764932856  0.2148559451795023   T   T   T
  0.4999896359731097  0.5783475725192818  0.2150045920558736   T   T   T
  0.2500000585449982  0.0000000000000000  0.2300717830609997   F   F   F
  0.7500001756339998  0.0000000000000000  0.2300717830609997   F   F   F
  0.0003424382674459  0.4200726838642749  0.2474049190470227   T   T   T
  0.5001663802708184  0.4217175280302670  0.2450754757686132   T   T   T
  0.2500000585449982  0.8421049774159997  0.2589766237420008   F   F   F
  0.7500001756339998  0.8421049774159997  0.2589766237420008   F   F   F
  0.0004836670443194  0.2639141064748926  0.2740908969339435   T   T   T
  0.5002803990937903  0.2628206268098919  0.2709689306614866   T   T   T
  0.2499869204337785  0.6833833051874937  0.2889654881421869   T   T   T
  0.7500092275360609  0.6833819820240993  0.2889636303562046   T   T   T
  0.0002149784578480  0.1084210007201797  0.3038083113631903   T   T   T
  0.5002306234836589  0.1054405316059418  0.3023577487300254   T   T   T
  0.2493490118772500  0.5256925078736677  0.3196133876221253   T   T   T
  0.7507106534300850  0.5257274068355877  0.3196057027341098   T   T   T
  0.0000000000000000  0.9473680995929996  0.3312387254430007   F   F   F
  0.5000001170890016  0.9473680995929996  0.3312387254430007   F   F   F
  0.2501589235876532  0.3705488587612815  0.3502898526999475   T   T   T
  0.7516238331864525  0.3705456765177108  0.3501370566695937   T   T   T
  0.9999755142288781  0.7904165413100533  0.3611784197874833   T   T   T
  0.5000044568446356  0.7902319640930358  0.3613352255624320   T   T   T
  0.2498048244038013  0.2110783962352985  0.3786997073464371   T   T   T
  0.7516757838752688  0.2109420838042685  0.3785685611120416   T   T   T
  0.0000054893450640  0.6292522722267594  0.3911606211465538   T   T   T
  0.5000108978483498  0.6292138448956583  0.3912343257557261   T   T   T
  0.2493218474455237  0.0530251009161662  0.4035704685172535   T   T   T
  0.7508380507271685  0.0529725460047318  0.4035628339324812   T   T   T
  0.2499952166361143  0.8969354045050671  0.4330809933935749   T   T   T
  0.7499503072220527  0.8969259837409214  0.4330822931629279   T   T   T
  0.2506090554731010  0.7379078918752208  0.4588541383639345   T   T   T
  0.7493899023068156  0.7378894860123663  0.4588536265867885   T   T   T
  0.5114569928259367  0.3424163033309598  0.5333656220500586   T   T   T
 
  0.00000000E+00  0.00000000E+00  0.00000000E+00
  0.00000000E+00  0.00000000E+00  0.00000000E+00
  0.00000000E+00  0.00000000E+00  0.00000000E+00
  0.00000000E+00  0.00000000E+00  0.00000000E+00
  0.00000000E+00  0.00000000E+00  0.00000000E+00
  0.00000000E+00  0.00000000E+00  0.00000000E+00
  0.00000000E+00  0.00000000E+00  0.00000000E+00
  0.00000000E+00  0.00000000E+00  0.00000000E+00
  0.00000000E+00  0.00000000E+00  0.00000000E+00
  0.00000000E+00  0.00000000E+00  0.00000000E+00
  0.00000000E+00  0.00000000E+00  0.00000000E+00
  0.00000000E+00  0.00000000E+00  0.00000000E+00
  0.00000000E+00  0.00000000E+00  0.00000000E+00
  0.00000000E+00  0.00000000E+00  0.00000000E+00
  0.00000000E+00  0.00000000E+00  0.00000000E+00
  0.00000000E+00  0.00000000E+00  0.00000000E+00
  0.00000000E+00  0.00000000E+00  0.00000000E+00
  0.00000000E+00  0.00000000E+00  0.00000000E+00
  0.00000000E+00  0.00000000E+00  0.00000000E+00
  0.00000000E+00  0.00000000E+00  0.00000000E+00
  0.00000000E+00  0.00000000E+00  0.00000000E+00
  0.00000000E+00  0.00000000E+00  0.00000000E+00
  0.00000000E+00  0.00000000E+00  0.00000000E+00
  0.00000000E+00  0.00000000E+00  0.00000000E+00
  0.00000000E+00  0.00000000E+00  0.00000000E+00
  0.00000000E+00  0.00000000E+00  0.00000000E+00
  0.00000000E+00  0.00000000E+00  0.00000000E+00
  0.00000000E+00  0.00000000E+00  0.00000000E+00
  0.00000000E+00  0.00000000E+00  0.00000000E+00
  0.00000000E+00  0.00000000E+00  0.00000000E+00
  0.00000000E+00  0.00000000E+00  0.00000000E+00
  0.00000000E+00  0.00000000E+00  0.00000000E+00
  0.00000000E+00  0.00000000E+00  0.00000000E+00
  0.00000000E+00  0.00000000E+00  0.00000000E+00
  0.00000000E+00  0.00000000E+00  0.00000000E+00
  0.00000000E+00  0.00000000E+00  0.00000000E+00
  0.00000000E+00  0.00000000E+00  0.00000000E+00
  0.00000000E+00  0.00000000E+00  0.00000000E+00
  0.00000000E+00  0.00000000E+00  0.00000000E+00
  0.00000000E+00  0.00000000E+00  0.00000000E+00
  0.00000000E+00  0.00000000E+00  0.00000000E+00
  0.00000000E+00  0.00000000E+00  0.00000000E+00
  0.00000000E+00  0.00000000E+00  0.00000000E+00
  0.00000000E+00  0.00000000E+00  0.00000000E+00
  0.00000000E+00  0.00000000E+00  0.00000000E+00
