C Cu H O                                
   1.00000000000000     
     5.0397299999999996    0.0000000000000000    0.0000000000000000
     0.0000000000000000   15.5335000000000001    0.0000000000000000
     0.0000000000000000    0.0000000000000000   20.0000000000000000
   C    Cu   H    O 
     2    42     1     2
Selective dynamics
Direct
  0.5888585996179659  0.4800561992721733  0.3965346454646584   T   T   T
  0.3678189028799433  0.4462550322669653  0.4279679682474845   T   T   T
  0.2509997672580013  0.6315948698860012  0.1131489099060019   F   F   F
  0.7509998843470029  0.6315948698860012  0.1131489099060019   F   F   F
  0.2509997672580013  0.4737001866210022  0.1420537505860011   F   F   F
  0.7509998843470029  0.4737001866210022  0.1420537505860011   F   F   F
  0.2509997672580013  0.3158055033550013  0.1709585912670022   F   F   F
  0.7509998843470029  0.3158055033550013  0.1709585912670022   F   F   F
  0.0009997087130031  0.7368579920630012  0.1854110116070018   F   F   F
  0.5009998258029995  0.7368579920630012  0.1854110116070018   F   F   F
  0.2509997672580013  0.1579108200900023  0.1998634319470014   F   F   F
  0.7509998843470029  0.1579108200900023  0.1998634319470014   F   F   F
  0.0023122629075973  0.5781527297908806  0.2151253824895620   T   T   T
  0.5006643672520724  0.5793802248989387  0.2134268654746877   T   T   T
  0.2509997672580013  0.0000161368240015  0.2287682726270006   F   F   F
  0.7509998843470029  0.0000161368240015  0.2287682726270006   F   F   F
  0.0027950012005629  0.4213821274199152  0.2437364286742526   T   T   T
  0.5000002148210134  0.4209498083018484  0.2423601737815433   T   T   T
  0.2509997672580013  0.8421211142400011  0.2576731133080017   F   F   F
  0.7509998843470029  0.8421211142400011  0.2576731133080017   F   F   F
  0.9973290170017676  0.2660195139637944  0.2734628920171088   T   T   T
  0.4998653370543133  0.2648922348760231  0.2729205624075498   T   T   T
  0.2470218425017114  0.6826909493600847  0.2898193949397138   T   T   T
  0.7503088590899575  0.6841967882274430  0.2883335602281127   T   T   T
  0.0011358600607137  0.1055958870648327  0.3008891357951118   T   T   T
  0.5008451282675492  0.1060428859142034  0.3008203398870100   T   T   T
  0.2554766820018300  0.5252290584126428  0.3198038667644356   T   T   T
  0.7562506382155854  0.5277162117060653  0.3156057269990202   T   T   T
  0.0009997087130031  0.9473842364170011  0.3299352150090016   F   F   F
  0.5009998258029995  0.9473842364170011  0.3299352150090016   F   F   F
  0.2409130912268904  0.3671149653726937  0.3495171972639329   T   T   T
  0.7451007905490650  0.3724199552242004  0.3505129319544701   T   T   T
  0.9992579929326132  0.7895610620720718  0.3607429542774986   T   T   T
  0.5003212004856142  0.7899372064727015  0.3606558824491086   T   T   T
  0.2499645769332902  0.2100101475371851  0.3735588451388667   T   T   T
  0.7510851482860835  0.2124421828112025  0.3731859856893808   T   T   T
  0.9959987681160360  0.6303833772512545  0.3959100460732999   T   T   T
  0.4937211161999043  0.6314909266229198  0.3920220892525107   T   T   T
  0.2510855368619386  0.0540665745152725  0.4025634986121112   T   T   T
  0.7512879389333096  0.0551365136951827  0.4021997542327925   T   T   T
  0.2505544306337121  0.8990656867797123  0.4318267267288683   T   T   T
  0.7510037355510351  0.8995760741937235  0.4317638636129500   T   T   T
  0.2487206898624972  0.7429371322533197  0.4596196393910936   T   T   T
  0.7471054214948031  0.7447296136916483  0.4608942746932231   T   T   T
  0.9300149073857280  0.5054569699334893  0.4755796788294700   T   T   T
  0.8041914908902064  0.5481069424620565  0.4567044159825557   T   T   T
  0.2462665867351352  0.4394518277253685  0.4807032506456237   T   T   T
 
  0.00000000E+00  0.00000000E+00  0.00000000E+00
  0.00000000E+00  0.00000000E+00  0.00000000E+00
  0.00000000E+00  0.00000000E+00  0.00000000E+00
  0.00000000E+00  0.00000000E+00  0.00000000E+00
  0.00000000E+00  0.00000000E+00  0.00000000E+00
  0.00000000E+00  0.00000000E+00  0.00000000E+00
  0.00000000E+00  0.00000000E+00  0.00000000E+00
  0.00000000E+00  0.00000000E+00  0.00000000E+00
  0.00000000E+00  0.00000000E+00  0.00000000E+00
  0.00000000E+00  0.00000000E+00  0.00000000E+00
  0.00000000E+00  0.00000000E+00  0.00000000E+00
  0.00000000E+00  0.00000000E+00  0.00000000E+00
  0.00000000E+00  0.00000000E+00  0.00000000E+00
  0.00000000E+00  0.00000000E+00  0.00000000E+00
  0.00000000E+00  0.00000000E+00  0.00000000E+00
  0.00000000E+00  0.00000000E+00  0.00000000E+00
  0.00000000E+00  0.00000000E+00  0.00000000E+00
  0.00000000E+00  0.00000000E+00  0.00000000E+00
  0.00000000E+00  0.00000000E+00  0.00000000E+00
  0.00000000E+00  0.00000000E+00  0.00000000E+00
  0.00000000E+00  0.00000000E+00  0.00000000E+00
  0.00000000E+00  0.00000000E+00  0.00000000E+00
  0.00000000E+00  0.00000000E+00  0.00000000E+00
  0.00000000E+00  0.00000000E+00  0.00000000E+00
  0.00000000E+00  0.00000000E+00  0.00000000E+00
  0.00000000E+00  0.00000000E+00  0.00000000E+00
  0.00000000E+00  0.00000000E+00  0.00000000E+00
  0.00000000E+00  0.00000000E+00  0.00000000E+00
  0.00000000E+00  0.00000000E+00  0.00000000E+00
  0.00000000E+00  0.00000000E+00  0.00000000E+00
  0.00000000E+00  0.00000000E+00  0.00000000E+00
  0.00000000E+00  0.00000000E+00  0.00000000E+00
  0.00000000E+00  0.00000000E+00  0.00000000E+00
  0.00000000E+00  0.00000000E+00  0.00000000E+00
  0.00000000E+00  0.00000000E+00  0.00000000E+00
  0.00000000E+00  0.00000000E+00  0.00000000E+00
  0.00000000E+00  0.00000000E+00  0.00000000E+00
  0.00000000E+00  0.00000000E+00  0.00000000E+00
  0.00000000E+00  0.00000000E+00  0.00000000E+00
  0.00000000E+00  0.00000000E+00  0.00000000E+00
  0.00000000E+00  0.00000000E+00  0.00000000E+00
  0.00000000E+00  0.00000000E+00  0.00000000E+00
  0.00000000E+00  0.00000000E+00  0.00000000E+00
  0.00000000E+00  0.00000000E+00  0.00000000E+00
  0.00000000E+00  0.00000000E+00  0.00000000E+00
  0.00000000E+00  0.00000000E+00  0.00000000E+00
  0.00000000E+00  0.00000000E+00  0.00000000E+00
