C Cu H O                                
   1.00000000000000     
     5.0397311801970002    0.0000000000000000    0.0000000000000000
     0.0000000000000000   15.5334947292029995    0.0000000000000000
     0.0000000000000000    0.0000000000000000   22.2262101700959995
   C    Cu   H    O 
     2    42     4     3
Selective dynamics
Direct
  0.2492970249271165  0.3123433468446141  0.4846199699498271   T   T   T
  0.2502869470328972  0.2207808737869426  0.4957960286569997   T   T   T
  0.0000000000000000  0.5789473684209980  0.2000000000000028   F   F   F
  0.5000000000000000  0.5789473684209980  0.2000000000000028   F   F   F
  0.2500000000000000  0.0000000000000000  0.2130048444870027   F   F   F
  0.7500000000000000  0.0000000000000000  0.2130048444870027   F   F   F
  0.0000000000000000  0.4210526315790020  0.2260096889749974   F   F   F
  0.5000000000000000  0.4210526315790020  0.2260096889749974   F   F   F
  0.2500000000000000  0.8421052631579968  0.2390145334619973   F   F   F
  0.7500000000000000  0.8421052631579968  0.2390145334619973   F   F   F
  0.0000000000000000  0.2631578947369988  0.2520193779489972   F   F   F
  0.5000000000000000  0.2631578947369988  0.2520193779489972   F   F   F
  0.2500000000000000  0.6842105263160008  0.2650242224359971   F   F   F
  0.7500000000000000  0.6842105263160008  0.2650242224359971   F   F   F
  0.0000000000000000  0.1052631578950027  0.2780290669239989   F   F   F
  0.5000000000000000  0.1052631578950027  0.2780290669239989   F   F   F
  0.2501799686612453  0.5272255667672339  0.2900458665444988   T   T   T
  0.7478852380849046  0.5267809547992296  0.2901462523993446   T   T   T
  0.9984965830136431  0.9474515661873948  0.3037637498340046   T   T   T
  0.5012919641458216  0.9473945781293995  0.3038187341851383   T   T   T
  0.2504074678797067  0.3682519251880637  0.3168592535417992   T   T   T
  0.7484917951323137  0.3672794775542920  0.3178062360396523   T   T   T
  0.9998454095909675  0.7894933669544583  0.3303506464959116   T   T   T
  0.5002401661101941  0.7891764123703734  0.3308513360578664   T   T   T
  0.2505151107461664  0.2099015429721024  0.3422583905122731   T   T   T
  0.7506854954746817  0.2102883468218813  0.3448466608549653   T   T   T
  0.9947709969245337  0.6313651443108587  0.3583182417194582   T   T   T
  0.5032706254358233  0.6320599435071187  0.3579312044550417   T   T   T
  0.2497610178938169  0.0526025786775606  0.3702295166637596   T   T   T
  0.7498925377635951  0.0545300961791595  0.3717755505909990   T   T   T
  0.9975666163969584  0.4725836047373726  0.3806057551271869   T   T   T
  0.4969627253819047  0.4726358996608708  0.3829540745864758   T   T   T
  0.2497121642951616  0.8931449691472204  0.3974068287442087   T   T   T
  0.7502839704572788  0.8909373653554956  0.3982068391793102   T   T   T
  0.0011922197398387  0.3189433052162828  0.4106923761531075   T   T   T
  0.5020363838338909  0.3178220037770884  0.4109316444203756   T   T   T
  0.2482845997736701  0.7386529834438866  0.4220886163302867   T   T   T
  0.7510068880375155  0.7334259682511408  0.4234678129298787   T   T   T
  0.0002872774696663  0.1596836454854763  0.4386896492794298   T   T   T
  0.4991530094055218  0.1590151911942429  0.4386100821451627   T   T   T
  0.2440747352555006  0.5827092049538629  0.4449318647129752   T   T   T
  0.7527230610501212  0.5692871041180125  0.4524271885154039   T   T   T
  0.0001713071662521  0.9984638765208376  0.4585477316176953   T   T   T
  0.5001300842064449  0.9980901449640234  0.4585719625329775   T   T   T
  0.2482145123950959  0.1344670933931746  0.5570185483728515   T   T   T
  0.4607352419481363  0.5054067751292859  0.4558603861015340   T   T   T
  0.9969336000171841  0.4494245352245667  0.5258219905515084   T   T   T
  0.6864021364888837  0.4512435117712525  0.5343734511719621   T   T   T
  0.2549704208011521  0.3733133977922694  0.5222386318565040   T   T   T
  0.2521901650031746  0.1974069855703646  0.5556751876220035   T   T   T
  0.8405809242560626  0.4889975025637779  0.5290623296750354   T   T   T
 
  0.00000000E+00  0.00000000E+00  0.00000000E+00
  0.00000000E+00  0.00000000E+00  0.00000000E+00
  0.00000000E+00  0.00000000E+00  0.00000000E+00
  0.00000000E+00  0.00000000E+00  0.00000000E+00
  0.00000000E+00  0.00000000E+00  0.00000000E+00
  0.00000000E+00  0.00000000E+00  0.00000000E+00
  0.00000000E+00  0.00000000E+00  0.00000000E+00
  0.00000000E+00  0.00000000E+00  0.00000000E+00
  0.00000000E+00  0.00000000E+00  0.00000000E+00
  0.00000000E+00  0.00000000E+00  0.00000000E+00
  0.00000000E+00  0.00000000E+00  0.00000000E+00
  0.00000000E+00  0.00000000E+00  0.00000000E+00
  0.00000000E+00  0.00000000E+00  0.00000000E+00
  0.00000000E+00  0.00000000E+00  0.00000000E+00
  0.00000000E+00  0.00000000E+00  0.00000000E+00
  0.00000000E+00  0.00000000E+00  0.00000000E+00
  0.00000000E+00  0.00000000E+00  0.00000000E+00
  0.00000000E+00  0.00000000E+00  0.00000000E+00
  0.00000000E+00  0.00000000E+00  0.00000000E+00
  0.00000000E+00  0.00000000E+00  0.00000000E+00
  0.00000000E+00  0.00000000E+00  0.00000000E+00
  0.00000000E+00  0.00000000E+00  0.00000000E+00
  0.00000000E+00  0.00000000E+00  0.00000000E+00
  0.00000000E+00  0.00000000E+00  0.00000000E+00
  0.00000000E+00  0.00000000E+00  0.00000000E+00
  0.00000000E+00  0.00000000E+00  0.00000000E+00
  0.00000000E+00  0.00000000E+00  0.00000000E+00
  0.00000000E+00  0.00000000E+00  0.00000000E+00
  0.00000000E+00  0.00000000E+00  0.00000000E+00
  0.00000000E+00  0.00000000E+00  0.00000000E+00
  0.00000000E+00  0.00000000E+00  0.00000000E+00
  0.00000000E+00  0.00000000E+00  0.00000000E+00
  0.00000000E+00  0.00000000E+00  0.00000000E+00
  0.00000000E+00  0.00000000E+00  0.00000000E+00
  0.00000000E+00  0.00000000E+00  0.00000000E+00
  0.00000000E+00  0.00000000E+00  0.00000000E+00
  0.00000000E+00  0.00000000E+00  0.00000000E+00
  0.00000000E+00  0.00000000E+00  0.00000000E+00
  0.00000000E+00  0.00000000E+00  0.00000000E+00
  0.00000000E+00  0.00000000E+00  0.00000000E+00
  0.00000000E+00  0.00000000E+00  0.00000000E+00
  0.00000000E+00  0.00000000E+00  0.00000000E+00
  0.00000000E+00  0.00000000E+00  0.00000000E+00
  0.00000000E+00  0.00000000E+00  0.00000000E+00
  0.00000000E+00  0.00000000E+00  0.00000000E+00
  0.00000000E+00  0.00000000E+00  0.00000000E+00
  0.00000000E+00  0.00000000E+00  0.00000000E+00
  0.00000000E+00  0.00000000E+00  0.00000000E+00
  0.00000000E+00  0.00000000E+00  0.00000000E+00
  0.00000000E+00  0.00000000E+00  0.00000000E+00
  0.00000000E+00  0.00000000E+00  0.00000000E+00
