C Cu H O                                
   1.00000000000000     
     5.0397311801970002    0.0000000000000000    0.0000000000000000
     0.0000000000000000   15.5334947292029995    0.0000000000000000
     0.0000000000000000    0.0000000000000000   22.2262101700959995
   C    Cu   H    O 
     2    42     1     2
Selective dynamics
Direct
  0.3855491665397718  0.4435145856026937  0.4664687240336326   T   T   T
  0.1804677121723963  0.3792000869208115  0.4782085236633198   T   T   T
  0.0000000000000000  0.5789473684209980  0.2000000000000028   F   F   F
  0.5000000000000000  0.5789473684209980  0.2000000000000028   F   F   F
  0.2500000000000000  0.0000000000000000  0.2130048444870027   F   F   F
  0.7500000000000000  0.0000000000000000  0.2130048444870027   F   F   F
  0.0000000000000000  0.4210526315790020  0.2260096889749974   F   F   F
  0.5000000000000000  0.4210526315790020  0.2260096889749974   F   F   F
  0.2500000000000000  0.8421052631579968  0.2390145334619973   F   F   F
  0.7500000000000000  0.8421052631579968  0.2390145334619973   F   F   F
  0.0000000000000000  0.2631578947369988  0.2520193779489972   F   F   F
  0.5000000000000000  0.2631578947369988  0.2520193779489972   F   F   F
  0.2500000000000000  0.6842105263160008  0.2650242224359971   F   F   F
  0.7500000000000000  0.6842105263160008  0.2650242224359971   F   F   F
  0.0000000000000000  0.1052631578950027  0.2780290669239989   F   F   F
  0.5000000000000000  0.1052631578950027  0.2780290669239989   F   F   F
  0.2529880887354516  0.5264255647706284  0.2907437725856894   T   T   T
  0.7509438568194833  0.5260985967737770  0.2911486748461708   T   T   T
  0.0004080940831197  0.9469781912847154  0.3036000303127482   T   T   T
  0.4995453490198511  0.9471724693300529  0.3036613496318542   T   T   T
  0.2490738903428202  0.3684332862768701  0.3166212200405143   T   T   T
  0.7489114207128863  0.3680946541581330  0.3172134480339577   T   T   T
  0.0002435615098704  0.7895570872056927  0.3306973067853925   T   T   T
  0.4995450969803265  0.7895558899781655  0.3308967711741905   T   T   T
  0.2476106413584860  0.2109354894504082  0.3437998472412731   T   T   T
  0.7464427484781736  0.2123453851909665  0.3443471611444763   T   T   T
  0.0025305511718039  0.6312176135293541  0.3577199896087533   T   T   T
  0.5042543305775052  0.6319924969356722  0.3574377751374800   T   T   T
  0.2498043547935727  0.0522426981556839  0.3701943777967625   T   T   T
  0.7500735508166074  0.0524436863648282  0.3699890276142127   T   T   T
  0.0013884079804082  0.4719241927554200  0.3835046072125684   T   T   T
  0.5152160087365223  0.4726012225162159  0.3846778333751658   T   T   T
  0.2498421754493473  0.8911285897303625  0.3988338289633972   T   T   T
  0.7499173925299640  0.8932632348764752  0.3980053436798852   T   T   T
  0.9873693384546882  0.3168532493127611  0.4122055441294826   T   T   T
  0.4872353568673340  0.3177543250869366  0.4126946403136540   T   T   T
  0.2499318324245767  0.7332339783897712  0.4234419648495665   T   T   T
  0.7503822406048264  0.7389833450735694  0.4222101422872545   T   T   T
  0.9987944049070309  0.1581969042373267  0.4344514968785531   T   T   T
  0.5000486199041817  0.1591938861624625  0.4343494549123793   T   T   T
  0.2553435542914994  0.5732278018897324  0.4457334432827228   T   T   T
  0.7631028686959205  0.5852654687091480  0.4480833663458010   T   T   T
  0.0005355629558506  0.0002728068123548  0.4584791165987354   T   T   T
  0.4995754516256836  0.0008052464164934  0.4584238800507989   T   T   T
  0.4605940547206138  0.4364179986746926  0.5523450088180191   T   T   T
  0.5332505972674431  0.4673355929763574  0.5172180830865265   T   T   T
  0.1117096286809062  0.3552813815992629  0.5292385694813964   T   T   T
 
  0.00000000E+00  0.00000000E+00  0.00000000E+00
  0.00000000E+00  0.00000000E+00  0.00000000E+00
  0.00000000E+00  0.00000000E+00  0.00000000E+00
  0.00000000E+00  0.00000000E+00  0.00000000E+00
  0.00000000E+00  0.00000000E+00  0.00000000E+00
  0.00000000E+00  0.00000000E+00  0.00000000E+00
  0.00000000E+00  0.00000000E+00  0.00000000E+00
  0.00000000E+00  0.00000000E+00  0.00000000E+00
  0.00000000E+00  0.00000000E+00  0.00000000E+00
  0.00000000E+00  0.00000000E+00  0.00000000E+00
  0.00000000E+00  0.00000000E+00  0.00000000E+00
  0.00000000E+00  0.00000000E+00  0.00000000E+00
  0.00000000E+00  0.00000000E+00  0.00000000E+00
  0.00000000E+00  0.00000000E+00  0.00000000E+00
  0.00000000E+00  0.00000000E+00  0.00000000E+00
  0.00000000E+00  0.00000000E+00  0.00000000E+00
  0.00000000E+00  0.00000000E+00  0.00000000E+00
  0.00000000E+00  0.00000000E+00  0.00000000E+00
  0.00000000E+00  0.00000000E+00  0.00000000E+00
  0.00000000E+00  0.00000000E+00  0.00000000E+00
  0.00000000E+00  0.00000000E+00  0.00000000E+00
  0.00000000E+00  0.00000000E+00  0.00000000E+00
  0.00000000E+00  0.00000000E+00  0.00000000E+00
  0.00000000E+00  0.00000000E+00  0.00000000E+00
  0.00000000E+00  0.00000000E+00  0.00000000E+00
  0.00000000E+00  0.00000000E+00  0.00000000E+00
  0.00000000E+00  0.00000000E+00  0.00000000E+00
  0.00000000E+00  0.00000000E+00  0.00000000E+00
  0.00000000E+00  0.00000000E+00  0.00000000E+00
  0.00000000E+00  0.00000000E+00  0.00000000E+00
  0.00000000E+00  0.00000000E+00  0.00000000E+00
  0.00000000E+00  0.00000000E+00  0.00000000E+00
  0.00000000E+00  0.00000000E+00  0.00000000E+00
  0.00000000E+00  0.00000000E+00  0.00000000E+00
  0.00000000E+00  0.00000000E+00  0.00000000E+00
  0.00000000E+00  0.00000000E+00  0.00000000E+00
  0.00000000E+00  0.00000000E+00  0.00000000E+00
  0.00000000E+00  0.00000000E+00  0.00000000E+00
  0.00000000E+00  0.00000000E+00  0.00000000E+00
  0.00000000E+00  0.00000000E+00  0.00000000E+00
  0.00000000E+00  0.00000000E+00  0.00000000E+00
  0.00000000E+00  0.00000000E+00  0.00000000E+00
  0.00000000E+00  0.00000000E+00  0.00000000E+00
  0.00000000E+00  0.00000000E+00  0.00000000E+00
  0.00000000E+00  0.00000000E+00  0.00000000E+00
  0.00000000E+00  0.00000000E+00  0.00000000E+00
  0.00000000E+00  0.00000000E+00  0.00000000E+00
