Cu                                      
   1.00000000000000     
     5.0397311801970002    0.0000000000000000    0.0000000000000000
     0.0000000000000000   15.5334947292029995    0.0000000000000000
     0.0000000000000000    0.0000000000000000   22.2262101700959995
   Cu
    42
Selective dynamics
Direct
  0.0000000000000000  0.5789473684209980  0.2000000000000028   F   F   F
  0.5000000000000000  0.5789473684209980  0.2000000000000028   F   F   F
  0.2500000000000000  0.0000000000000000  0.2130048444870027   F   F   F
  0.7500000000000000  0.0000000000000000  0.2130048444870027   F   F   F
  0.0000000000000000  0.4210526315790020  0.2260096889749974   F   F   F
  0.5000000000000000  0.4210526315790020  0.2260096889749974   F   F   F
  0.2500000000000000  0.8421052631579968  0.2390145334619973   F   F   F
  0.7500000000000000  0.8421052631579968  0.2390145334619973   F   F   F
  0.0000000000000000  0.2631578947369988  0.2520193779489972   F   F   F
  0.5000000000000000  0.2631578947369988  0.2520193779489972   F   F   F
  0.2500000000000000  0.6842105263160008  0.2650242224359971   F   F   F
  0.7500000000000000  0.6842105263160008  0.2650242224359971   F   F   F
  0.0000000000000000  0.1052631578950027  0.2780290669239989   F   F   F
  0.5000000000000000  0.1052631578950027  0.2780290669239989   F   F   F
  0.2500000000000000  0.5262396180676766  0.2907129471975748   T   T   T
  0.7500000000000000  0.5262396180676766  0.2907129471975748   T   T   T
 -0.0000000000000000  0.9471837555924083  0.3035471846765595   T   T   T
  0.5000000000000000  0.9471837555924083  0.3035471846765595   T   T   T
  0.2500000000000000  0.3688402792347205  0.3174440583038003   T   T   T
  0.7500000000000000  0.3688402792347205  0.3174440583038003   T   T   T
 -0.0000000000000000  0.7897275826091247  0.3306922554607061   T   T   T
  0.5000000000000000  0.7897275826091247  0.3306922554607061   T   T   T
  0.2500000000000000  0.2103736239675335  0.3434487993972022   T   T   T
  0.7500000000000000  0.2103736239675335  0.3434487993972022   T   T   T
  0.0000000000000000  0.6315067361327107  0.3573311157126122   T   T   T
  0.5000000000000000  0.6315067361327107  0.3573311157126122   T   T   T
  0.2500000000000000  0.0524258948229955  0.3701649524350348   T   T   T
  0.7500000000000000  0.0524258948229955  0.3701649524350348   T   T   T
  0.0000000000000000  0.4713119242853958  0.3852489124899958   T   T   T
  0.5000000000000000  0.4713119242853958  0.3852489124899958   T   T   T
  0.2500000000000000  0.8929726815711593  0.3983147308424010   T   T   T
  0.7500000000000000  0.8929726815711593  0.3983147308424010   T   T   T
  0.0000000000000000  0.3153958518097090  0.4091698900170497   T   T   T
  0.5000000000000000  0.3153958518097090  0.4091698900170497   T   T   T
  0.2500000000000000  0.7375320693129083  0.4223018278085105   T   T   T
  0.7500000000000000  0.7375320693129083  0.4223018278085105   T   T   T
  0.0000000000000000  0.1592005499036855  0.4347679012959326   T   T   T
  0.5000000000000000  0.1592005499036855  0.4347679012959326   T   T   T
  0.2500000000000000  0.5793308172093667  0.4454898320992241   T   T   T
  0.7500000000000000  0.5793308172093667  0.4454898320992241   T   T   T
  0.0000000000000000  0.0010725270541586  0.4585916069194822   T   T   T
  0.5000000000000000  0.0010725270541586  0.4585916069194822   T   T   T
 
  0.00000000E+00  0.00000000E+00  0.00000000E+00
  0.00000000E+00  0.00000000E+00  0.00000000E+00
  0.00000000E+00  0.00000000E+00  0.00000000E+00
  0.00000000E+00  0.00000000E+00  0.00000000E+00
  0.00000000E+00  0.00000000E+00  0.00000000E+00
  0.00000000E+00  0.00000000E+00  0.00000000E+00
  0.00000000E+00  0.00000000E+00  0.00000000E+00
  0.00000000E+00  0.00000000E+00  0.00000000E+00
  0.00000000E+00  0.00000000E+00  0.00000000E+00
  0.00000000E+00  0.00000000E+00  0.00000000E+00
  0.00000000E+00  0.00000000E+00  0.00000000E+00
  0.00000000E+00  0.00000000E+00  0.00000000E+00
  0.00000000E+00  0.00000000E+00  0.00000000E+00
  0.00000000E+00  0.00000000E+00  0.00000000E+00
  0.00000000E+00  0.00000000E+00  0.00000000E+00
  0.00000000E+00  0.00000000E+00  0.00000000E+00
  0.00000000E+00  0.00000000E+00  0.00000000E+00
  0.00000000E+00  0.00000000E+00  0.00000000E+00
  0.00000000E+00  0.00000000E+00  0.00000000E+00
  0.00000000E+00  0.00000000E+00  0.00000000E+00
  0.00000000E+00  0.00000000E+00  0.00000000E+00
  0.00000000E+00  0.00000000E+00  0.00000000E+00
  0.00000000E+00  0.00000000E+00  0.00000000E+00
  0.00000000E+00  0.00000000E+00  0.00000000E+00
  0.00000000E+00  0.00000000E+00  0.00000000E+00
  0.00000000E+00  0.00000000E+00  0.00000000E+00
  0.00000000E+00  0.00000000E+00  0.00000000E+00
  0.00000000E+00  0.00000000E+00  0.00000000E+00
  0.00000000E+00  0.00000000E+00  0.00000000E+00
  0.00000000E+00  0.00000000E+00  0.00000000E+00
  0.00000000E+00  0.00000000E+00  0.00000000E+00
  0.00000000E+00  0.00000000E+00  0.00000000E+00
  0.00000000E+00  0.00000000E+00  0.00000000E+00
  0.00000000E+00  0.00000000E+00  0.00000000E+00
  0.00000000E+00  0.00000000E+00  0.00000000E+00
  0.00000000E+00  0.00000000E+00  0.00000000E+00
  0.00000000E+00  0.00000000E+00  0.00000000E+00
  0.00000000E+00  0.00000000E+00  0.00000000E+00
  0.00000000E+00  0.00000000E+00  0.00000000E+00
  0.00000000E+00  0.00000000E+00  0.00000000E+00
  0.00000000E+00  0.00000000E+00  0.00000000E+00
  0.00000000E+00  0.00000000E+00  0.00000000E+00
