C Cu H O                                
   1.00000000000000     
     5.0397311801970002    0.0000000000000000    0.0000000000000000
     0.0000000000000000   15.5334947292029995    0.0000000000000000
     0.0000000000000000    0.0000000000000000   22.2262101700959995
   C    Cu   H    O 
     2    42     4     3
Selective dynamics
Direct
  0.7625392857058744  0.3025025153579761  0.4870432762867503   T   T   T
  0.7412020812079653  0.2109574816294878  0.4958510831567219   T   T   T
  0.4999998829109984  0.5789473684209980  0.2000000000000028   F   F   F
  0.9999998829109984  0.5789473684209980  0.2000000000000028   F   F   F
  0.7499998829109984  0.0000000000000000  0.2130048444870027   F   F   F
  0.2500001170890016  0.0000000000000000  0.2130048444870027   F   F   F
  0.4999998829109984  0.4210526315790020  0.2260096889749974   F   F   F
  0.9999998829109984  0.4210526315790020  0.2260096889749974   F   F   F
  0.7499998829109984  0.8421052631579968  0.2390145334619973   F   F   F
  0.2500001170890016  0.8421052631579968  0.2390145334619973   F   F   F
  0.4999998829109984  0.2631578947369988  0.2520193779489972   F   F   F
  0.9999998829109984  0.2631578947369988  0.2520193779489972   F   F   F
  0.7499998829109984  0.6842105263160008  0.2650242224359971   F   F   F
  0.2500001170890016  0.6842105263160008  0.2650242224359971   F   F   F
  0.4999998829109984  0.1052631578950027  0.2780290669239989   F   F   F
  0.9999998829109984  0.1052631578950027  0.2780290669239989   F   F   F
  0.7501793314272404  0.5262045838880397  0.2906951391311936   T   T   T
  0.2505328477028875  0.5262280726221067  0.2903541377293017   T   T   T
  0.4985265070754680  0.9472379558924285  0.3033088595559662   T   T   T
  0.0006697273372622  0.9471471060413201  0.3032469400364307   T   T   T
  0.7511320132407452  0.3685863869358521  0.3178587412252490   T   T   T
  0.2528047083934774  0.3670840118934940  0.3189777786249852   T   T   T
  0.5001405333054222  0.7893800647513145  0.3303177605920505   T   T   T
  0.9995660166582037  0.7894079498012639  0.3300574964808993   T   T   T
  0.7506136740527524  0.2102817688809158  0.3423770374039518   T   T   T
  0.2504569906913889  0.2106139162058749  0.3449971519446597   T   T   T
  0.5000834684388171  0.6322753630068028  0.3563988231353689   T   T   T
  0.0011892863091200  0.6319870042132341  0.3575320161256955   T   T   T
  0.7488502761411294  0.0514572180618864  0.3696122195906135   T   T   T
  0.2483742990565436  0.0535001400948893  0.3709100524045864   T   T   T
  0.5000716347030182  0.4721220239302979  0.3847788480146305   T   T   T
  0.0027587930316761  0.4730099278260134  0.3836314856271023   T   T   T
  0.7494124990742446  0.8921335512045011  0.3973216679421214   T   T   T
  0.2491217363655350  0.8922967610909446  0.3970091369466047   T   T   T
  0.5072552467186893  0.3176365477645655  0.4136601959828768   T   T   T
  0.0044510580096120  0.3185857552352493  0.4122371831377328   T   T   T
  0.7511668478044322  0.7378794523712646  0.4221034281499637   T   T   T
  0.2493614437363198  0.7376931062779649  0.4221958092427929   T   T   T
  0.4951795511943487  0.1564043555285702  0.4370597230809228   T   T   T
  0.9978743818263756  0.1570737673412977  0.4374501937102085   T   T   T
  0.7498786239419785  0.5802625537787329  0.4448584993043710   T   T   T
  0.2541774523597382  0.5792676503109269  0.4457648276389876   T   T   T
  0.4989707725650030  0.9966696775261944  0.4582510513581478   T   T   T
  0.9987726943071085  0.9971231407440074  0.4583322024541186   T   T   T
  0.7126655667632998  0.1211951502898236  0.5539279197704047   T   T   T
  0.5086343105049427  0.5290322928390302  0.4907360203000674   T   T   T
  0.6444585380070553  0.5274115197440961  0.5713914901283713   T   T   T
  0.6390628721536737  0.4339910590279178  0.5385342751925182   T   T   T
  0.7940161571005030  0.3572859642949088  0.5287098931934505   T   T   T
  0.7335220449656336  0.1838532471167451  0.5548168243059241   T   T   T
  0.5268311550274258  0.4898410221448475  0.5482651763725990   T   T   T
 
  0.00000000E+00  0.00000000E+00  0.00000000E+00
  0.00000000E+00  0.00000000E+00  0.00000000E+00
  0.00000000E+00  0.00000000E+00  0.00000000E+00
  0.00000000E+00  0.00000000E+00  0.00000000E+00
  0.00000000E+00  0.00000000E+00  0.00000000E+00
  0.00000000E+00  0.00000000E+00  0.00000000E+00
  0.00000000E+00  0.00000000E+00  0.00000000E+00
  0.00000000E+00  0.00000000E+00  0.00000000E+00
  0.00000000E+00  0.00000000E+00  0.00000000E+00
  0.00000000E+00  0.00000000E+00  0.00000000E+00
  0.00000000E+00  0.00000000E+00  0.00000000E+00
  0.00000000E+00  0.00000000E+00  0.00000000E+00
  0.00000000E+00  0.00000000E+00  0.00000000E+00
  0.00000000E+00  0.00000000E+00  0.00000000E+00
  0.00000000E+00  0.00000000E+00  0.00000000E+00
  0.00000000E+00  0.00000000E+00  0.00000000E+00
  0.00000000E+00  0.00000000E+00  0.00000000E+00
  0.00000000E+00  0.00000000E+00  0.00000000E+00
  0.00000000E+00  0.00000000E+00  0.00000000E+00
  0.00000000E+00  0.00000000E+00  0.00000000E+00
  0.00000000E+00  0.00000000E+00  0.00000000E+00
  0.00000000E+00  0.00000000E+00  0.00000000E+00
  0.00000000E+00  0.00000000E+00  0.00000000E+00
  0.00000000E+00  0.00000000E+00  0.00000000E+00
  0.00000000E+00  0.00000000E+00  0.00000000E+00
  0.00000000E+00  0.00000000E+00  0.00000000E+00
  0.00000000E+00  0.00000000E+00  0.00000000E+00
  0.00000000E+00  0.00000000E+00  0.00000000E+00
  0.00000000E+00  0.00000000E+00  0.00000000E+00
  0.00000000E+00  0.00000000E+00  0.00000000E+00
  0.00000000E+00  0.00000000E+00  0.00000000E+00
  0.00000000E+00  0.00000000E+00  0.00000000E+00
  0.00000000E+00  0.00000000E+00  0.00000000E+00
  0.00000000E+00  0.00000000E+00  0.00000000E+00
  0.00000000E+00  0.00000000E+00  0.00000000E+00
  0.00000000E+00  0.00000000E+00  0.00000000E+00
  0.00000000E+00  0.00000000E+00  0.00000000E+00
  0.00000000E+00  0.00000000E+00  0.00000000E+00
  0.00000000E+00  0.00000000E+00  0.00000000E+00
  0.00000000E+00  0.00000000E+00  0.00000000E+00
  0.00000000E+00  0.00000000E+00  0.00000000E+00
  0.00000000E+00  0.00000000E+00  0.00000000E+00
  0.00000000E+00  0.00000000E+00  0.00000000E+00
  0.00000000E+00  0.00000000E+00  0.00000000E+00
  0.00000000E+00  0.00000000E+00  0.00000000E+00
  0.00000000E+00  0.00000000E+00  0.00000000E+00
  0.00000000E+00  0.00000000E+00  0.00000000E+00
  0.00000000E+00  0.00000000E+00  0.00000000E+00
  0.00000000E+00  0.00000000E+00  0.00000000E+00
  0.00000000E+00  0.00000000E+00  0.00000000E+00
  0.00000000E+00  0.00000000E+00  0.00000000E+00
