C Cu H O                                
   1.00000000000000     
     5.0397311801970002    0.0000000000000000    0.0000000000000000
     0.0000000000000000   15.5334947292029995    0.0000000000000000
     0.0000000000000000    0.0000000000000000   22.2262101700959995
   C    Cu   H    O 
     2    42     3     3
Selective dynamics
Direct
  0.2461746934220786  0.3162701363423591  0.4829729089832989   T   T   T
  0.2508266772711211  0.2253778470492552  0.4957973480933782   T   T   T
  0.0000000000000000  0.5789473684209980  0.2000000000000028   F   F   F
  0.5000000000000000  0.5789473684209980  0.2000000000000028   F   F   F
  0.2500000000000000  0.0000000000000000  0.2130048444870027   F   F   F
  0.7500000000000000  0.0000000000000000  0.2130048444870027   F   F   F
  0.0000000000000000  0.4210526315790020  0.2260096889749974   F   F   F
  0.5000000000000000  0.4210526315790020  0.2260096889749974   F   F   F
  0.2500000000000000  0.8421052631579968  0.2390145334619973   F   F   F
  0.7500000000000000  0.8421052631579968  0.2390145334619973   F   F   F
  0.0000000000000000  0.2631578947369988  0.2520193779489972   F   F   F
  0.5000000000000000  0.2631578947369988  0.2520193779489972   F   F   F
  0.2500000000000000  0.6842105263160008  0.2650242224359971   F   F   F
  0.7500000000000000  0.6842105263160008  0.2650242224359971   F   F   F
  0.0000000000000000  0.1052631578950027  0.2780290669239989   F   F   F
  0.5000000000000000  0.1052631578950027  0.2780290669239989   F   F   F
  0.2504459463192753  0.5273663632789798  0.2896316661076118   T   T   T
  0.7504228049175798  0.5269796204849313  0.2896000188682123   T   T   T
  0.9984632240868997  0.9475020599583865  0.3040296105200150   T   T   T
  0.5014247692157195  0.9475042954639793  0.3040307052628495   T   T   T
  0.2500007530984424  0.3684181909015363  0.3166667932918805   T   T   T
  0.7497382502357020  0.3673103956080137  0.3174142410938331   T   T   T
  0.0002984543790421  0.7890247020475800  0.3307719524264937   T   T   T
  0.4994030974053482  0.7890199379405080  0.3307573449407534   T   T   T
  0.2496330217757902  0.2099482761439380  0.3422329800025669   T   T   T
  0.7495399645378465  0.2103381344180885  0.3448136890370448   T   T   T
 -0.0023967551347172  0.6306673756289299  0.3588243842088056   T   T   T
  0.5041084514385502  0.6306113765781590  0.3587956235902983   T   T   T
  0.2498926654476107  0.0528868018912308  0.3704666543238868   T   T   T
  0.7499626567774923  0.0554049457240140  0.3721946620864581   T   T   T
  0.0014514810184688  0.4733464189391604  0.3812735134180874   T   T   T
  0.5008324175417996  0.4733301839987953  0.3814196733247299   T   T   T
  0.2498500825043880  0.8926763501610383  0.3980134968322221   T   T   T
  0.7498405600341921  0.8915163851931288  0.3982678429844685   T   T   T
 -0.0026803749139224  0.3191677601854004  0.4098557613911753   T   T   T
  0.4993159819691731  0.3192555252702715  0.4101143422224643   T   T   T
  0.2498947354454487  0.7373923543903688  0.4223096352883898   T   T   T
  0.7498460499568654  0.7343640690855254  0.4230291223682420   T   T   T
  0.0015553741321240  0.1608208321961577  0.4392714824086218   T   T   T
  0.4983263214425792  0.1608330413633728  0.4391397189474840   T   T   T
  0.2526368802506061  0.5794927195576164  0.4453145600407711   T   T   T
  0.7527248806806524  0.5708158943364517  0.4511708294520499   T   T   T
  0.0000320824160876 -0.0007754581425511  0.4587001402213135   T   T   T
  0.4996972203368732 -0.0007771628987855  0.4586797152038772   T   T   T
  0.2553607459327784  0.1410054507309523  0.5583664821575300   T   T   T
  0.9222291596231764  0.4452075876117391  0.5223408580126158   T   T   T
  0.6051333323782097  0.4454995944111214  0.5237958716049906   T   T   T
  0.2434941004080227  0.3800807039784668  0.5187724394282737   T   T   T
  0.2526628933524472  0.2038733740963696  0.5560405463490978   T   T   T
  0.7631431269146124  0.4831419506650259  0.5226453501328107   T   T   T
 
  0.00000000E+00  0.00000000E+00  0.00000000E+00
  0.00000000E+00  0.00000000E+00  0.00000000E+00
  0.00000000E+00  0.00000000E+00  0.00000000E+00
  0.00000000E+00  0.00000000E+00  0.00000000E+00
  0.00000000E+00  0.00000000E+00  0.00000000E+00
  0.00000000E+00  0.00000000E+00  0.00000000E+00
  0.00000000E+00  0.00000000E+00  0.00000000E+00
  0.00000000E+00  0.00000000E+00  0.00000000E+00
  0.00000000E+00  0.00000000E+00  0.00000000E+00
  0.00000000E+00  0.00000000E+00  0.00000000E+00
  0.00000000E+00  0.00000000E+00  0.00000000E+00
  0.00000000E+00  0.00000000E+00  0.00000000E+00
  0.00000000E+00  0.00000000E+00  0.00000000E+00
  0.00000000E+00  0.00000000E+00  0.00000000E+00
  0.00000000E+00  0.00000000E+00  0.00000000E+00
  0.00000000E+00  0.00000000E+00  0.00000000E+00
  0.00000000E+00  0.00000000E+00  0.00000000E+00
  0.00000000E+00  0.00000000E+00  0.00000000E+00
  0.00000000E+00  0.00000000E+00  0.00000000E+00
  0.00000000E+00  0.00000000E+00  0.00000000E+00
  0.00000000E+00  0.00000000E+00  0.00000000E+00
  0.00000000E+00  0.00000000E+00  0.00000000E+00
  0.00000000E+00  0.00000000E+00  0.00000000E+00
  0.00000000E+00  0.00000000E+00  0.00000000E+00
  0.00000000E+00  0.00000000E+00  0.00000000E+00
  0.00000000E+00  0.00000000E+00  0.00000000E+00
  0.00000000E+00  0.00000000E+00  0.00000000E+00
  0.00000000E+00  0.00000000E+00  0.00000000E+00
  0.00000000E+00  0.00000000E+00  0.00000000E+00
  0.00000000E+00  0.00000000E+00  0.00000000E+00
  0.00000000E+00  0.00000000E+00  0.00000000E+00
  0.00000000E+00  0.00000000E+00  0.00000000E+00
  0.00000000E+00  0.00000000E+00  0.00000000E+00
  0.00000000E+00  0.00000000E+00  0.00000000E+00
  0.00000000E+00  0.00000000E+00  0.00000000E+00
  0.00000000E+00  0.00000000E+00  0.00000000E+00
  0.00000000E+00  0.00000000E+00  0.00000000E+00
  0.00000000E+00  0.00000000E+00  0.00000000E+00
  0.00000000E+00  0.00000000E+00  0.00000000E+00
  0.00000000E+00  0.00000000E+00  0.00000000E+00
  0.00000000E+00  0.00000000E+00  0.00000000E+00
  0.00000000E+00  0.00000000E+00  0.00000000E+00
  0.00000000E+00  0.00000000E+00  0.00000000E+00
  0.00000000E+00  0.00000000E+00  0.00000000E+00
  0.00000000E+00  0.00000000E+00  0.00000000E+00
  0.00000000E+00  0.00000000E+00  0.00000000E+00
  0.00000000E+00  0.00000000E+00  0.00000000E+00
  0.00000000E+00  0.00000000E+00  0.00000000E+00
  0.00000000E+00  0.00000000E+00  0.00000000E+00
  0.00000000E+00  0.00000000E+00  0.00000000E+00
