C Cu H O                                
   1.00000000000000     
     5.0397311801970002    0.0000000000000000    0.0000000000000000
     0.0000000000000000   15.5334947292029995    0.0000000000000000
     0.0000000000000000    0.0000000000000000   22.2262101700959995
   C    Cu   H    O 
     2    42     2     2
Selective dynamics
Direct
  0.2563998849774594  0.3039643905238354  0.4829079644287453   T   T   T
  0.2423523116141228  0.2154823359704187  0.4962185279830889   T   T   T
  0.0000000000000000  0.5789473684209980  0.2000000000000028   F   F   F
  0.5000000000000000  0.5789473684209980  0.2000000000000028   F   F   F
  0.2500000000000000  0.0000000000000000  0.2130048444870027   F   F   F
  0.7500000000000000  0.0000000000000000  0.2130048444870027   F   F   F
  0.0000000000000000  0.4210526315790020  0.2260096889749974   F   F   F
  0.5000000000000000  0.4210526315790020  0.2260096889749974   F   F   F
  0.2500000000000000  0.8421052631579968  0.2390145334619973   F   F   F
  0.7500000000000000  0.8421052631579968  0.2390145334619973   F   F   F
  0.0000000000000000  0.2631578947369988  0.2520193779489972   F   F   F
  0.5000000000000000  0.2631578947369988  0.2520193779489972   F   F   F
  0.2500000000000000  0.6842105263160008  0.2650242224359971   F   F   F
  0.7500000000000000  0.6842105263160008  0.2650242224359971   F   F   F
  0.0000000000000000  0.1052631578950027  0.2780290669239989   F   F   F
  0.5000000000000000  0.1052631578950027  0.2780290669239989   F   F   F
  0.2500287022298414  0.5264267377516012  0.2903774536840047   T   T   T
  0.7500297139494209  0.5265584783775220  0.2899710577093579   T   T   T
  0.9981422508952533  0.9474646854213877  0.3035073133611539   T   T   T
  0.5011609157616808  0.9474041061322572  0.3034614886694302   T   T   T
  0.2506892939557092  0.3688544176544076  0.3169619203914553   T   T   T
  0.7509417626893859  0.3670389217124699  0.3190772143711773   T   T   T
  0.0003503965989193  0.7893595557665338  0.3303844588063889   T   T   T
  0.4994453917614874  0.7893522127154395  0.3303856260457799   T   T   T
  0.2502196617272141  0.2099451216669537  0.3420615459464986   T   T   T
  0.7499264767430637  0.2107710091732339  0.3451056203053186   T   T   T
 -0.0000831182225132  0.6319072108247804  0.3574796792173197   T   T   T
  0.5001644632576809  0.6319591988551697  0.3574688637610443   T   T   T
  0.2493859821181812  0.0518250111087611  0.3698007868981447   T   T   T
  0.7487197862529990  0.0545369020700771  0.3714712229377269   T   T   T
  0.9989806093274085  0.4734871282737897  0.3836317839071769   T   T   T
  0.5012750469574395  0.4735947162850567  0.3835557643141271   T   T   T
  0.2495157946687248  0.8920991780044056  0.3976137591077029   T   T   T
  0.7494153773500575  0.8925231405729781  0.3971593170347335   T   T   T
  0.0027729819414347  0.3192906682940860  0.4123530033285073   T   T   T
  0.5026212255746216  0.3193528445971526  0.4121079456434096   T   T   T
  0.2500210853696488  0.7374514404592564  0.4224356756229158   T   T   T
  0.7501027206915252  0.7379182781891624  0.4225067453946590   T   T   T
  0.9975298317209864  0.1571392412857843  0.4377735288771695   T   T   T
  0.4977426945053740  0.1574551931675627  0.4385445986785507   T   T   T
  0.2500427205247693  0.5794361451342345  0.4459568704417762   T   T   T
  0.7500537525715756  0.5793472018422622  0.4456550972948731   T   T   T
  0.9994110888435066  0.9974415723094265  0.4584304144267263   T   T   T
  0.4990459874654372  0.9975439078698761  0.4585171263598714   T   T   T
  0.2215153970607630  0.1324890101623422  0.5603062820195552   T   T   T
  0.2549157963447964  0.3325472015083332  0.5669435393898594   T   T   T
  0.2621304531629021  0.3636347872094672  0.5284013494795140   T   T   T
  0.2344133834099965  0.1950272957830165  0.5571533897423193   T   T   T
 
  0.00000000E+00  0.00000000E+00  0.00000000E+00
  0.00000000E+00  0.00000000E+00  0.00000000E+00
  0.00000000E+00  0.00000000E+00  0.00000000E+00
  0.00000000E+00  0.00000000E+00  0.00000000E+00
  0.00000000E+00  0.00000000E+00  0.00000000E+00
  0.00000000E+00  0.00000000E+00  0.00000000E+00
  0.00000000E+00  0.00000000E+00  0.00000000E+00
  0.00000000E+00  0.00000000E+00  0.00000000E+00
  0.00000000E+00  0.00000000E+00  0.00000000E+00
  0.00000000E+00  0.00000000E+00  0.00000000E+00
  0.00000000E+00  0.00000000E+00  0.00000000E+00
  0.00000000E+00  0.00000000E+00  0.00000000E+00
  0.00000000E+00  0.00000000E+00  0.00000000E+00
  0.00000000E+00  0.00000000E+00  0.00000000E+00
  0.00000000E+00  0.00000000E+00  0.00000000E+00
  0.00000000E+00  0.00000000E+00  0.00000000E+00
  0.00000000E+00  0.00000000E+00  0.00000000E+00
  0.00000000E+00  0.00000000E+00  0.00000000E+00
  0.00000000E+00  0.00000000E+00  0.00000000E+00
  0.00000000E+00  0.00000000E+00  0.00000000E+00
  0.00000000E+00  0.00000000E+00  0.00000000E+00
  0.00000000E+00  0.00000000E+00  0.00000000E+00
  0.00000000E+00  0.00000000E+00  0.00000000E+00
  0.00000000E+00  0.00000000E+00  0.00000000E+00
  0.00000000E+00  0.00000000E+00  0.00000000E+00
  0.00000000E+00  0.00000000E+00  0.00000000E+00
  0.00000000E+00  0.00000000E+00  0.00000000E+00
  0.00000000E+00  0.00000000E+00  0.00000000E+00
  0.00000000E+00  0.00000000E+00  0.00000000E+00
  0.00000000E+00  0.00000000E+00  0.00000000E+00
  0.00000000E+00  0.00000000E+00  0.00000000E+00
  0.00000000E+00  0.00000000E+00  0.00000000E+00
  0.00000000E+00  0.00000000E+00  0.00000000E+00
  0.00000000E+00  0.00000000E+00  0.00000000E+00
  0.00000000E+00  0.00000000E+00  0.00000000E+00
  0.00000000E+00  0.00000000E+00  0.00000000E+00
  0.00000000E+00  0.00000000E+00  0.00000000E+00
  0.00000000E+00  0.00000000E+00  0.00000000E+00
  0.00000000E+00  0.00000000E+00  0.00000000E+00
  0.00000000E+00  0.00000000E+00  0.00000000E+00
  0.00000000E+00  0.00000000E+00  0.00000000E+00
  0.00000000E+00  0.00000000E+00  0.00000000E+00
  0.00000000E+00  0.00000000E+00  0.00000000E+00
  0.00000000E+00  0.00000000E+00  0.00000000E+00
  0.00000000E+00  0.00000000E+00  0.00000000E+00
  0.00000000E+00  0.00000000E+00  0.00000000E+00
  0.00000000E+00  0.00000000E+00  0.00000000E+00
  0.00000000E+00  0.00000000E+00  0.00000000E+00
