C Cu H O                                
   1.00000000000000     
     5.0397311801970002    0.0000000000000000    0.0000000000000000
     0.0000000000000000   15.5334947292029995    0.0000000000000000
     0.0000000000000000    0.0000000000000000   22.2262101700959995
   C    Cu   H    O 
     2    42     1     2
Selective dynamics
Direct
  0.2519608084917679  0.3094999569241701  0.4844654677513296   T   T   T
  0.2454156572917906  0.2165051490770794  0.4956390905838018   T   T   T
  0.0000000000000000  0.5789473684209980  0.2000000000000028   F   F   F
  0.5000000000000000  0.5789473684209980  0.2000000000000028   F   F   F
  0.2500000000000000  0.0000000000000000  0.2130048444870027   F   F   F
  0.7500000000000000  0.0000000000000000  0.2130048444870027   F   F   F
  0.0000000000000000  0.4210526315790020  0.2260096889749974   F   F   F
  0.5000000000000000  0.4210526315790020  0.2260096889749974   F   F   F
  0.2500000000000000  0.8421052631579968  0.2390145334619973   F   F   F
  0.7500000000000000  0.8421052631579968  0.2390145334619973   F   F   F
  0.0000000000000000  0.2631578947369988  0.2520193779489972   F   F   F
  0.5000000000000000  0.2631578947369988  0.2520193779489972   F   F   F
  0.2500000000000000  0.6842105263160008  0.2650242224359971   F   F   F
  0.7500000000000000  0.6842105263160008  0.2650242224359971   F   F   F
  0.0000000000000000  0.1052631578950027  0.2780290669239989   F   F   F
  0.5000000000000000  0.1052631578950027  0.2780290669239989   F   F   F
  0.2498858286992891  0.5265620400118125  0.2902072053766938   T   T   T
  0.7498757545001752  0.5266664219547841  0.2898757500499761   T   T   T
  0.9986952564372903  0.9474269861190550  0.3034561090522691   T   T   T
  0.5006904044782147  0.9473971187753987  0.3034440526402267   T   T   T
  0.2501551480647609  0.3687776486413727  0.3172988108350329   T   T   T
  0.7502589478103994  0.3674839858914423  0.3179561322190040   T   T   T
  0.0002938057556883  0.7893878893797576  0.3304455731749992   T   T   T
  0.4995675206818118  0.7893823508484769  0.3304520556539646   T   T   T
  0.2496577772642464  0.2101362187305712  0.3423738479521202   T   T   T
  0.7493999507202936  0.2104608240288396  0.3453002958845035   T   T   T
  0.0000679599402973  0.6317737452804288  0.3575647610441392   T   T   T
  0.4996884077989763  0.6317883097040861  0.3575664830907758   T   T   T
  0.2491575688631750  0.0519535242041603  0.3700822092198067   T   T   T
  0.7488715158948344  0.0541264798820136  0.3714804664742213   T   T   T
  0.9982283783115897  0.4733636081826505  0.3833586223169505   T   T   T
  0.5012545305978291  0.4733901446823676  0.3833333774339620   T   T   T
  0.2496949702228909  0.8922196706307017  0.3975821939618981   T   T   T
  0.7497217693452177  0.8927198298864770  0.3971900016012264   T   T   T
  0.0005543106319868  0.3190527084947594  0.4111059273022800   T   T   T
  0.5011393143318811  0.3190358910395128  0.4110655055169732   T   T   T
  0.2499423556304246  0.7373900419129527  0.4224174287381769   T   T   T
  0.7499657349444248  0.7378550675313527  0.4223654911870351   T   T   T
  0.9970662974973329  0.1578524863701752  0.4384007447312107   T   T   T
  0.4977945339656707  0.1577902576073107  0.4387736306948521   T   T   T
  0.2497101061379705  0.5788530527938921  0.4459095422488143   T   T   T
  0.7497030309721142  0.5790847146073136  0.4457322574605319   T   T   T
  0.9995069857597965  0.9974626761283587  0.4585661003352923   T   T   T
  0.4994280458777311  0.9973787013044471  0.4586130755928852   T   T   T
  0.2410391140840514  0.2464088533878716  0.5790550345426145   T   T   T
  0.2547920699176729  0.3658211010739545  0.5243420979419400   T   T   T
  0.2398799446236479  0.1929781214091965  0.5550128020355742   T   T   T
 
  0.00000000E+00  0.00000000E+00  0.00000000E+00
  0.00000000E+00  0.00000000E+00  0.00000000E+00
  0.00000000E+00  0.00000000E+00  0.00000000E+00
  0.00000000E+00  0.00000000E+00  0.00000000E+00
  0.00000000E+00  0.00000000E+00  0.00000000E+00
  0.00000000E+00  0.00000000E+00  0.00000000E+00
  0.00000000E+00  0.00000000E+00  0.00000000E+00
  0.00000000E+00  0.00000000E+00  0.00000000E+00
  0.00000000E+00  0.00000000E+00  0.00000000E+00
  0.00000000E+00  0.00000000E+00  0.00000000E+00
  0.00000000E+00  0.00000000E+00  0.00000000E+00
  0.00000000E+00  0.00000000E+00  0.00000000E+00
  0.00000000E+00  0.00000000E+00  0.00000000E+00
  0.00000000E+00  0.00000000E+00  0.00000000E+00
  0.00000000E+00  0.00000000E+00  0.00000000E+00
  0.00000000E+00  0.00000000E+00  0.00000000E+00
  0.00000000E+00  0.00000000E+00  0.00000000E+00
  0.00000000E+00  0.00000000E+00  0.00000000E+00
  0.00000000E+00  0.00000000E+00  0.00000000E+00
  0.00000000E+00  0.00000000E+00  0.00000000E+00
  0.00000000E+00  0.00000000E+00  0.00000000E+00
  0.00000000E+00  0.00000000E+00  0.00000000E+00
  0.00000000E+00  0.00000000E+00  0.00000000E+00
  0.00000000E+00  0.00000000E+00  0.00000000E+00
  0.00000000E+00  0.00000000E+00  0.00000000E+00
  0.00000000E+00  0.00000000E+00  0.00000000E+00
  0.00000000E+00  0.00000000E+00  0.00000000E+00
  0.00000000E+00  0.00000000E+00  0.00000000E+00
  0.00000000E+00  0.00000000E+00  0.00000000E+00
  0.00000000E+00  0.00000000E+00  0.00000000E+00
  0.00000000E+00  0.00000000E+00  0.00000000E+00
  0.00000000E+00  0.00000000E+00  0.00000000E+00
  0.00000000E+00  0.00000000E+00  0.00000000E+00
  0.00000000E+00  0.00000000E+00  0.00000000E+00
  0.00000000E+00  0.00000000E+00  0.00000000E+00
  0.00000000E+00  0.00000000E+00  0.00000000E+00
  0.00000000E+00  0.00000000E+00  0.00000000E+00
  0.00000000E+00  0.00000000E+00  0.00000000E+00
  0.00000000E+00  0.00000000E+00  0.00000000E+00
  0.00000000E+00  0.00000000E+00  0.00000000E+00
  0.00000000E+00  0.00000000E+00  0.00000000E+00
  0.00000000E+00  0.00000000E+00  0.00000000E+00
  0.00000000E+00  0.00000000E+00  0.00000000E+00
  0.00000000E+00  0.00000000E+00  0.00000000E+00
  0.00000000E+00  0.00000000E+00  0.00000000E+00
  0.00000000E+00  0.00000000E+00  0.00000000E+00
  0.00000000E+00  0.00000000E+00  0.00000000E+00
