Cu H O                                  
   1.00000000000000     
     5.0397311801970002    0.0000000000000000    0.0000000000000000
     0.0000000000000000   15.5334947292029995    0.0000000000000000
     0.0000000000000000    0.0000000000000000   22.2262101700959995
   Cu   H    O 
    42     1     1
Selective dynamics
Direct
  0.0000000000000000  0.5789473684209980  0.2000000000000028   F   F   F
  0.5000000000000000  0.5789473684209980  0.2000000000000028   F   F   F
  0.2500000000000000  0.0000000000000000  0.2130048444870027   F   F   F
  0.7500000000000000  0.0000000000000000  0.2130048444870027   F   F   F
  0.0000000000000000  0.4210526315790020  0.2260096889749974   F   F   F
  0.5000000000000000  0.4210526315790020  0.2260096889749974   F   F   F
  0.2500000000000000  0.8421052631579968  0.2390145334619973   F   F   F
  0.7500000000000000  0.8421052631579968  0.2390145334619973   F   F   F
  0.0000000000000000  0.2631578947369988  0.2520193779489972   F   F   F
  0.5000000000000000  0.2631578947369988  0.2520193779489972   F   F   F
  0.2500000000000000  0.6842105263160008  0.2650242224359971   F   F   F
  0.7500000000000000  0.6842105263160008  0.2650242224359971   F   F   F
  0.0000000000000000  0.1052631578950027  0.2780290669239989   F   F   F
  0.5000000000000000  0.1052631578950027  0.2780290669239989   F   F   F
  0.2499103836820130  0.5270666513128253  0.2906694726758029   T   T   T
  0.7500817574584493  0.5270686955733450  0.2906902821772349   T   T   T
  0.0000081195557048  0.9470351338477466  0.3035458665551365   T   T   T
  0.4999904606484338  0.9471281139057619  0.3035822898530815   T   T   T
  0.2495258825926462  0.3689639648806995  0.3172097871404586   T   T   T
  0.7504548524847928  0.3689768512019491  0.3172204907385259   T   T   T
  0.0000063475804869  0.7894456400557122  0.3302238857294826   T   T   T
  0.5000137824345984  0.7895633334644673  0.3305882663848219   T   T   T
  0.2500139263498379  0.2104054026246483  0.3434121683629824   T   T   T
  0.7499379607302563  0.2104035652993932  0.3434056514012772   T   T   T
  0.0000129725579917  0.6295220748488428  0.3605313263269553   T   T   T
  0.4999818065975276  0.6310593628635730  0.3583257794612498   T   T   T
  0.2500388193656583  0.0526599767650807  0.3702963906142852   T   T   T
  0.7499518171891476  0.0526425727230756  0.3702842658729419   T   T   T
  0.0000430954870210  0.4719205338514071  0.3845684282056320   T   T   T
  0.4999864681552270  0.4720175598026890  0.3829597111596090   T   T   T
  0.2498559637218405  0.8934453728879121  0.3981939806687498   T   T   T
  0.7501571823287353  0.8934509990179536  0.3982011538065633   T   T   T
  0.9999616012206965  0.3160494105136970  0.4089720584489299   T   T   T
  0.4999663022207647  0.3162323426429422  0.4088609813681462   T   T   T
  0.2493319054258261  0.7382769344318670  0.4213856470960231   T   T   T
  0.7506967015586958  0.7382938666339300  0.4213871080201448   T   T   T
  0.9999548624748684  0.1597226174905814  0.4348132393542609   T   T   T
  0.4999933152917037  0.1599047970721618  0.4347984329497906   T   T   T
  0.2441361976198272  0.5783297785310813  0.4502351598372467   T   T   T
  0.7558569634541542  0.5783585124670562  0.4502204912512738   T   T   T
  0.0000073091551660  0.0013541293213222  0.4588130134537776   T   T   T
  0.5000042179992770  0.0014509653706121  0.4587552640264598   T   T   T
  0.5001340178951987  0.4953988384049322  0.5256211135791549   T   T   T
  0.5000522539200349  0.5559457294024129  0.5138362030664866   T   T   T
 
  0.00000000E+00  0.00000000E+00  0.00000000E+00
  0.00000000E+00  0.00000000E+00  0.00000000E+00
  0.00000000E+00  0.00000000E+00  0.00000000E+00
  0.00000000E+00  0.00000000E+00  0.00000000E+00
  0.00000000E+00  0.00000000E+00  0.00000000E+00
  0.00000000E+00  0.00000000E+00  0.00000000E+00
  0.00000000E+00  0.00000000E+00  0.00000000E+00
  0.00000000E+00  0.00000000E+00  0.00000000E+00
  0.00000000E+00  0.00000000E+00  0.00000000E+00
  0.00000000E+00  0.00000000E+00  0.00000000E+00
  0.00000000E+00  0.00000000E+00  0.00000000E+00
  0.00000000E+00  0.00000000E+00  0.00000000E+00
  0.00000000E+00  0.00000000E+00  0.00000000E+00
  0.00000000E+00  0.00000000E+00  0.00000000E+00
  0.00000000E+00  0.00000000E+00  0.00000000E+00
  0.00000000E+00  0.00000000E+00  0.00000000E+00
  0.00000000E+00  0.00000000E+00  0.00000000E+00
  0.00000000E+00  0.00000000E+00  0.00000000E+00
  0.00000000E+00  0.00000000E+00  0.00000000E+00
  0.00000000E+00  0.00000000E+00  0.00000000E+00
  0.00000000E+00  0.00000000E+00  0.00000000E+00
  0.00000000E+00  0.00000000E+00  0.00000000E+00
  0.00000000E+00  0.00000000E+00  0.00000000E+00
  0.00000000E+00  0.00000000E+00  0.00000000E+00
  0.00000000E+00  0.00000000E+00  0.00000000E+00
  0.00000000E+00  0.00000000E+00  0.00000000E+00
  0.00000000E+00  0.00000000E+00  0.00000000E+00
  0.00000000E+00  0.00000000E+00  0.00000000E+00
  0.00000000E+00  0.00000000E+00  0.00000000E+00
  0.00000000E+00  0.00000000E+00  0.00000000E+00
  0.00000000E+00  0.00000000E+00  0.00000000E+00
  0.00000000E+00  0.00000000E+00  0.00000000E+00
  0.00000000E+00  0.00000000E+00  0.00000000E+00
  0.00000000E+00  0.00000000E+00  0.00000000E+00
  0.00000000E+00  0.00000000E+00  0.00000000E+00
  0.00000000E+00  0.00000000E+00  0.00000000E+00
  0.00000000E+00  0.00000000E+00  0.00000000E+00
  0.00000000E+00  0.00000000E+00  0.00000000E+00
  0.00000000E+00  0.00000000E+00  0.00000000E+00
  0.00000000E+00  0.00000000E+00  0.00000000E+00
  0.00000000E+00  0.00000000E+00  0.00000000E+00
  0.00000000E+00  0.00000000E+00  0.00000000E+00
  0.00000000E+00  0.00000000E+00  0.00000000E+00
  0.00000000E+00  0.00000000E+00  0.00000000E+00
