C Cu O                                  
   1.00000000000000     
     5.0397311801970002    0.0000000000000000    0.0000000000000000
     0.0000000000000000   15.5334947292029995    0.0000000000000000
     0.0000000000000000    0.0000000000000000   22.2262101700959995
   C    Cu   O 
     2    42     1
Selective dynamics
Direct
  0.2500718736088646  0.2524665049564638  0.4678244231783507   T   T   T
  0.2500978558822728  0.2739604630284857  0.5255223190925415   T   T   T
  0.0000000000000000  0.5789473684209980  0.2000000000000028   F   F   F
  0.5000000000000000  0.5789473684209980  0.2000000000000028   F   F   F
  0.2500000000000000  0.0000000000000000  0.2130048444870027   F   F   F
  0.7500000000000000  0.0000000000000000  0.2130048444870027   F   F   F
  0.0000000000000000  0.4210526315790020  0.2260096889749974   F   F   F
  0.5000000000000000  0.4210526315790020  0.2260096889749974   F   F   F
  0.2500000000000000  0.8421052631579968  0.2390145334619973   F   F   F
  0.7500000000000000  0.8421052631579968  0.2390145334619973   F   F   F
  0.0000000000000000  0.2631578947369988  0.2520193779489972   F   F   F
  0.5000000000000000  0.2631578947369988  0.2520193779489972   F   F   F
  0.2500000000000000  0.6842105263160008  0.2650242224359971   F   F   F
  0.7500000000000000  0.6842105263160008  0.2650242224359971   F   F   F
  0.0000000000000000  0.1052631578950027  0.2780290669239989   F   F   F
  0.5000000000000000  0.1052631578950027  0.2780290669239989   F   F   F
  0.2499993511046374  0.5262682546013352  0.2905809480279726   T   T   T
  0.7499958011756562  0.5264425657996147  0.2902750722841624   T   T   T
  0.9984348282734943  0.9476505761205878  0.3037786320587949   T   T   T
  0.5016174203907129  0.9476511049432669  0.3037784766399073   T   T   T
  0.2500062911636903  0.3688997968446526  0.3173348868122000   T   T   T
  0.7500370161047385  0.3671648982842268  0.3193878909426485   T   T   T
  0.0005486319451920  0.7895765679776123  0.3305394494427878   T   T   T
  0.4994881164414957  0.7895777641958120  0.3305389773701727   T   T   T
  0.2500251340256881  0.2096980863437254  0.3409545949021758   T   T   T
  0.7500226550607134  0.2104149605908241  0.3437924249449098   T   T   T
  0.9995438163655938  0.6315426749481891  0.3575030254924177   T   T   T
  0.5004571209369255  0.6315411070175128  0.3575035360983839   T   T   T
  0.2500361725869351  0.0525791129350214  0.3701222417146973   T   T   T
  0.7500555214186218  0.0553710253450420  0.3719231682817691   T   T   T
  0.9995220643584968  0.4721601727830446  0.3845107459686045   T   T   T
  0.5004731027266397  0.4721621180696314  0.3845142420149139   T   T   T
  0.2500285279070165  0.8927220099460690  0.3981469917945014   T   T   T
  0.7500234287518844  0.8928766038510269  0.3977296614816523   T   T   T
  0.9991021832782547  0.3177558254998364  0.4120042431968702   T   T   T
  0.5009941301678630  0.3177581451317638  0.4119976806073798   T   T   T
  0.2500141456489242  0.7373884958021608  0.4222886373641459   T   T   T
  0.7500118464075214  0.7377557291096353  0.4223997518234542   T   T   T
  0.9993260756392692  0.1592606048562085  0.4379379043661156   T   T   T
  0.5008238106677131  0.1592593823466145  0.4379365168905780   T   T   T
  0.2499819522895524  0.5791709080417179  0.4458696797655926   T   T   T
  0.7499816077383314  0.5790485134021124  0.4457393319320621   T   T   T
  0.0004236434593984  0.9997886354339791  0.4584896512849622   T   T   T
  0.4996588640645453  0.9997924976610794  0.4584898970098003   T   T   T
  0.2501498319082145  0.2932678945743399  0.5768983137196506   T   T   T
 
  0.00000000E+00  0.00000000E+00  0.00000000E+00
  0.00000000E+00  0.00000000E+00  0.00000000E+00
  0.00000000E+00  0.00000000E+00  0.00000000E+00
  0.00000000E+00  0.00000000E+00  0.00000000E+00
  0.00000000E+00  0.00000000E+00  0.00000000E+00
  0.00000000E+00  0.00000000E+00  0.00000000E+00
  0.00000000E+00  0.00000000E+00  0.00000000E+00
  0.00000000E+00  0.00000000E+00  0.00000000E+00
  0.00000000E+00  0.00000000E+00  0.00000000E+00
  0.00000000E+00  0.00000000E+00  0.00000000E+00
  0.00000000E+00  0.00000000E+00  0.00000000E+00
  0.00000000E+00  0.00000000E+00  0.00000000E+00
  0.00000000E+00  0.00000000E+00  0.00000000E+00
  0.00000000E+00  0.00000000E+00  0.00000000E+00
  0.00000000E+00  0.00000000E+00  0.00000000E+00
  0.00000000E+00  0.00000000E+00  0.00000000E+00
  0.00000000E+00  0.00000000E+00  0.00000000E+00
  0.00000000E+00  0.00000000E+00  0.00000000E+00
  0.00000000E+00  0.00000000E+00  0.00000000E+00
  0.00000000E+00  0.00000000E+00  0.00000000E+00
  0.00000000E+00  0.00000000E+00  0.00000000E+00
  0.00000000E+00  0.00000000E+00  0.00000000E+00
  0.00000000E+00  0.00000000E+00  0.00000000E+00
  0.00000000E+00  0.00000000E+00  0.00000000E+00
  0.00000000E+00  0.00000000E+00  0.00000000E+00
  0.00000000E+00  0.00000000E+00  0.00000000E+00
  0.00000000E+00  0.00000000E+00  0.00000000E+00
  0.00000000E+00  0.00000000E+00  0.00000000E+00
  0.00000000E+00  0.00000000E+00  0.00000000E+00
  0.00000000E+00  0.00000000E+00  0.00000000E+00
  0.00000000E+00  0.00000000E+00  0.00000000E+00
  0.00000000E+00  0.00000000E+00  0.00000000E+00
  0.00000000E+00  0.00000000E+00  0.00000000E+00
  0.00000000E+00  0.00000000E+00  0.00000000E+00
  0.00000000E+00  0.00000000E+00  0.00000000E+00
  0.00000000E+00  0.00000000E+00  0.00000000E+00
  0.00000000E+00  0.00000000E+00  0.00000000E+00
  0.00000000E+00  0.00000000E+00  0.00000000E+00
  0.00000000E+00  0.00000000E+00  0.00000000E+00
  0.00000000E+00  0.00000000E+00  0.00000000E+00
  0.00000000E+00  0.00000000E+00  0.00000000E+00
  0.00000000E+00  0.00000000E+00  0.00000000E+00
  0.00000000E+00  0.00000000E+00  0.00000000E+00
  0.00000000E+00  0.00000000E+00  0.00000000E+00
  0.00000000E+00  0.00000000E+00  0.00000000E+00
