C Cu H O                                
   1.00000000000000     
     5.0397311801970002    0.0000000000000000    0.0000000000000000
     0.0000000000000000   15.5334947292029995    0.0000000000000000
     0.0000000000000000    0.0000000000000000   22.2262101700959995
   C    Cu   H    O 
     2    42     4     3
Selective dynamics
Direct
  0.2070820560616422  0.3059786084376487  0.4849283992525617   T   T   T
  0.2514702171251286  0.2164063136943717  0.4963473854242580   T   T   T
  0.0000000000000000  0.5789473684209980  0.2000000000000028   F   F   F
  0.5000000000000000  0.5789473684209980  0.2000000000000028   F   F   F
  0.2500000000000000  0.0000000000000000  0.2130048444870027   F   F   F
  0.7500000000000000  0.0000000000000000  0.2130048444870027   F   F   F
  0.0000000000000000  0.4210526315790020  0.2260096889749974   F   F   F
  0.5000000000000000  0.4210526315790020  0.2260096889749974   F   F   F
  0.2500000000000000  0.8421052631579968  0.2390145334619973   F   F   F
  0.7500000000000000  0.8421052631579968  0.2390145334619973   F   F   F
  0.0000000000000000  0.2631578947369988  0.2520193779489972   F   F   F
  0.5000000000000000  0.2631578947369988  0.2520193779489972   F   F   F
  0.2500000000000000  0.6842105263160008  0.2650242224359971   F   F   F
  0.7500000000000000  0.6842105263160008  0.2650242224359971   F   F   F
  0.0000000000000000  0.1052631578950027  0.2780290669239989   F   F   F
  0.5000000000000000  0.1052631578950027  0.2780290669239989   F   F   F
  0.2537558682133826  0.5263634771675673  0.2911521252798058   F   F   F
  0.7517951685063262  0.5265310181681082  0.2905207743787420   F   F   F
  0.9983456780808135  0.9476812347175282  0.3034059241711942   F   F   F
  0.5007998036611013  0.9475884884530705  0.3034309317380929   F   F   F
  0.2500264277411213  0.3694247771645550  0.3177114458155515   F   F   F
  0.7461696519551078  0.3679077398766532  0.3181990722564336   F   F   F
  0.0008129883794784  0.7900090014559423  0.3301520499641247   F   F   F
  0.4995505268394688  0.7897630844101013  0.3304843492093308   F   F   F
  0.2461498658518910  0.2100049518482600  0.3421926022017505   F   F   F
  0.7449851434338568  0.2104518330806721  0.3446332170179218   F   F   F
  0.0043231022813167  0.6327649639462520  0.3574261425657496   F   F   F
  0.5034921963560494  0.6325128924736758  0.3570366939980275   F   F   F
  0.2490647072643404  0.0521139080820608  0.3699259532775504   F   F   F
  0.7490267052792814  0.0547201214259931  0.3715139674684363   F   F   F
  0.0059624356293842  0.4735426344786789  0.3835621107291812   F   F   F
  0.5105818087247350  0.4720688178872748  0.3877473079990700   F   F   F
  0.2494421646088843  0.8924527423629240  0.3977301654105899   F   F   F
  0.7497641653201605  0.8935295837154790  0.3969312623783847   F   F   F
  0.9850498065391801  0.3181545215379114  0.4095977578975041   F   F   F
  0.4829365451882999  0.3169059020406057  0.4125677116713129   F   F   F
  0.2508601856236043  0.7376194937293090  0.4223917634275738   F   F   F
  0.7520907578579287  0.7389623489755899  0.4222345510835596   F   F   F
  0.9965219967183405  0.1583787166896150  0.4382697180765380   F   F   F
  0.4968865215982196  0.1580002346316391  0.4382227792258607   F   F   F
  0.2580665182621986  0.5801553344849698  0.4458497182955843   F   F   F
  0.7584050395037565  0.5813441636859137  0.4454007979739015   F   F   F
  0.9998264485572917  0.9983417459503966  0.4585636916434250   F   F   F
  0.4994128150910614  0.9979060515408791  0.4585283832982446   F   F   F
  0.2861825724172398  0.1304150074192481  0.5572669100370755   T   T   T
  0.6119349096585214  0.4820422749255574  0.4703705171117383   T   T   T
  0.8046241766190138  0.4118369372195803  0.5304369051002497   T   T   T
  0.4784934923841937  0.4127977535775828  0.5344989828420386   T   T   T
  0.1702487611686514  0.3660327443825853  0.5233829542018376   T   T   T
  0.2625583445444354  0.1928979784922743  0.5561453212684461   T   T   T
  0.6437965084540741  0.4488312561635373  0.5310982490156867   T   T   T
 
  0.00000000E+00  0.00000000E+00  0.00000000E+00
  0.00000000E+00  0.00000000E+00  0.00000000E+00
  0.00000000E+00  0.00000000E+00  0.00000000E+00
  0.00000000E+00  0.00000000E+00  0.00000000E+00
  0.00000000E+00  0.00000000E+00  0.00000000E+00
  0.00000000E+00  0.00000000E+00  0.00000000E+00
  0.00000000E+00  0.00000000E+00  0.00000000E+00
  0.00000000E+00  0.00000000E+00  0.00000000E+00
  0.00000000E+00  0.00000000E+00  0.00000000E+00
  0.00000000E+00  0.00000000E+00  0.00000000E+00
  0.00000000E+00  0.00000000E+00  0.00000000E+00
  0.00000000E+00  0.00000000E+00  0.00000000E+00
  0.00000000E+00  0.00000000E+00  0.00000000E+00
  0.00000000E+00  0.00000000E+00  0.00000000E+00
  0.00000000E+00  0.00000000E+00  0.00000000E+00
  0.00000000E+00  0.00000000E+00  0.00000000E+00
  0.00000000E+00  0.00000000E+00  0.00000000E+00
  0.00000000E+00  0.00000000E+00  0.00000000E+00
  0.00000000E+00  0.00000000E+00  0.00000000E+00
  0.00000000E+00  0.00000000E+00  0.00000000E+00
  0.00000000E+00  0.00000000E+00  0.00000000E+00
  0.00000000E+00  0.00000000E+00  0.00000000E+00
  0.00000000E+00  0.00000000E+00  0.00000000E+00
  0.00000000E+00  0.00000000E+00  0.00000000E+00
  0.00000000E+00  0.00000000E+00  0.00000000E+00
  0.00000000E+00  0.00000000E+00  0.00000000E+00
  0.00000000E+00  0.00000000E+00  0.00000000E+00
  0.00000000E+00  0.00000000E+00  0.00000000E+00
  0.00000000E+00  0.00000000E+00  0.00000000E+00
  0.00000000E+00  0.00000000E+00  0.00000000E+00
  0.00000000E+00  0.00000000E+00  0.00000000E+00
  0.00000000E+00  0.00000000E+00  0.00000000E+00
  0.00000000E+00  0.00000000E+00  0.00000000E+00
  0.00000000E+00  0.00000000E+00  0.00000000E+00
  0.00000000E+00  0.00000000E+00  0.00000000E+00
  0.00000000E+00  0.00000000E+00  0.00000000E+00
  0.00000000E+00  0.00000000E+00  0.00000000E+00
  0.00000000E+00  0.00000000E+00  0.00000000E+00
  0.00000000E+00  0.00000000E+00  0.00000000E+00
  0.00000000E+00  0.00000000E+00  0.00000000E+00
  0.00000000E+00  0.00000000E+00  0.00000000E+00
  0.00000000E+00  0.00000000E+00  0.00000000E+00
  0.00000000E+00  0.00000000E+00  0.00000000E+00
  0.00000000E+00  0.00000000E+00  0.00000000E+00
  0.00000000E+00  0.00000000E+00  0.00000000E+00
  0.00000000E+00  0.00000000E+00  0.00000000E+00
  0.00000000E+00  0.00000000E+00  0.00000000E+00
  0.00000000E+00  0.00000000E+00  0.00000000E+00
  0.00000000E+00  0.00000000E+00  0.00000000E+00
  0.00000000E+00  0.00000000E+00  0.00000000E+00
  0.00000000E+00  0.00000000E+00  0.00000000E+00
