C Cu H O                                
   1.00000000000000     
     5.0397311801970002    0.0000000000000000    0.0000000000000000
     0.0000000000000000   15.5334947292029995    0.0000000000000000
     0.0000000000000000    0.0000000000000000   22.2262101700959995
   C    Cu   H    O 
     2    42     1     2
Selective dynamics
Direct
  0.3384737705694527  0.4326573714631121  0.4540087120283124   T   T   T
  0.1388415030836684  0.3860797341698859  0.4828907752347699   T   T   T
  0.0000000000000000  0.5789473684209980  0.2000000000000028   F   F   F
  0.5000000000000000  0.5789473684209980  0.2000000000000028   F   F   F
  0.2500000000000000  0.0000000000000000  0.2130048444870027   F   F   F
  0.7500000000000000  0.0000000000000000  0.2130048444870027   F   F   F
  0.0000000000000000  0.4210526315790020  0.2260096889749974   F   F   F
  0.5000000000000000  0.4210526315790020  0.2260096889749974   F   F   F
  0.2500000000000000  0.8421052631579968  0.2390145334619973   F   F   F
  0.7500000000000000  0.8421052631579968  0.2390145334619973   F   F   F
  0.0000000000000000  0.2631578947369988  0.2520193779489972   F   F   F
  0.5000000000000000  0.2631578947369988  0.2520193779489972   F   F   F
  0.2500000000000000  0.6842105263160008  0.2650242224359971   F   F   F
  0.7500000000000000  0.6842105263160008  0.2650242224359971   F   F   F
  0.0000000000000000  0.1052631578950027  0.2780290669239989   F   F   F
  0.5000000000000000  0.1052631578950027  0.2780290669239989   F   F   F
  0.2506135317687033  0.5272370160729841  0.2899859585042446   T   T   T
  0.7538127802967092  0.5261063754598720  0.2914995850850760   T   T   T
  0.0002753813599522  0.9468483264801706  0.3035766611689714   T   T   T
  0.4999554039857609  0.9472145339472192  0.3036219036123007   T   T   T
  0.2495719803127213  0.3674467341657740  0.3159242704897026   T   T   T
  0.7541644654805092  0.3680091473486701  0.3171199862814732   T   T   T
  0.9996967082266678  0.7893930798767391  0.3304677456905301   T   T   T
  0.5001487710300895  0.7893953228371764  0.3308289245552316   T   T   T
  0.2491522783172541  0.2111859267586998  0.3439231125503082   T   T   T
  0.7462105728777892  0.2122334467528071  0.3443296475298807   T   T   T
  0.9983281682177647  0.6299621484254251  0.3598466612569204   T   T   T
  0.5001146800608852  0.6316971558318289  0.3579234257989258   T   T   T
  0.2499727696847450  0.0525767389003250  0.3701717664774574   T   T   T
  0.7500357112387946  0.0522382233980996  0.3700510828340139   T   T   T
  0.0090290936421420  0.4713023413413728  0.3861797149430001   T   T   T
  0.5097767701645470  0.4733002364115068  0.3800590027367058   T   T   T
  0.2502054192378980  0.8926212834104456  0.3981569961887301   T   T   T
  0.7498693358069193  0.8924208578184578  0.3984063970431529   T   T   T
  0.9902021586647443  0.3132555193323019  0.4127187816743840   T   T   T
  0.4951013314013646  0.3198700524342724  0.4135244911155200   T   T   T
  0.2494012254616852  0.7370821950067714  0.4226410855612466   T   T   T
  0.7501565039655316  0.7368191020229293  0.4222900190842597   T   T   T
  0.9994240036306770  0.1572332074166222  0.4347424919168525   T   T   T
  0.5002512666882187  0.1604687337166293  0.4343383098234547   T   T   T
  0.2426494133746792  0.5822243065824542  0.4494144623340764   T   T   T
  0.7506508717011824  0.5808396841162782  0.4508765607097204   T   T   T
  0.0002873357805455  0.9998437234036677  0.4586015856276989   T   T   T
  0.4998843300402924  0.0015987265544224  0.4584657212859087   T   T   T
  0.5153971002507968  0.4855797733233306  0.5449770895705288   T   T   T
  0.5064460135940956  0.5063733880651237  0.5033948597190536   T   T   T
  0.0417311609697436  0.3755828657836416  0.5328122550632329   T   T   T
 
  0.00000000E+00  0.00000000E+00  0.00000000E+00
  0.00000000E+00  0.00000000E+00  0.00000000E+00
  0.00000000E+00  0.00000000E+00  0.00000000E+00
  0.00000000E+00  0.00000000E+00  0.00000000E+00
  0.00000000E+00  0.00000000E+00  0.00000000E+00
  0.00000000E+00  0.00000000E+00  0.00000000E+00
  0.00000000E+00  0.00000000E+00  0.00000000E+00
  0.00000000E+00  0.00000000E+00  0.00000000E+00
  0.00000000E+00  0.00000000E+00  0.00000000E+00
  0.00000000E+00  0.00000000E+00  0.00000000E+00
  0.00000000E+00  0.00000000E+00  0.00000000E+00
  0.00000000E+00  0.00000000E+00  0.00000000E+00
  0.00000000E+00  0.00000000E+00  0.00000000E+00
  0.00000000E+00  0.00000000E+00  0.00000000E+00
  0.00000000E+00  0.00000000E+00  0.00000000E+00
  0.00000000E+00  0.00000000E+00  0.00000000E+00
  0.00000000E+00  0.00000000E+00  0.00000000E+00
  0.00000000E+00  0.00000000E+00  0.00000000E+00
  0.00000000E+00  0.00000000E+00  0.00000000E+00
  0.00000000E+00  0.00000000E+00  0.00000000E+00
  0.00000000E+00  0.00000000E+00  0.00000000E+00
  0.00000000E+00  0.00000000E+00  0.00000000E+00
  0.00000000E+00  0.00000000E+00  0.00000000E+00
  0.00000000E+00  0.00000000E+00  0.00000000E+00
  0.00000000E+00  0.00000000E+00  0.00000000E+00
  0.00000000E+00  0.00000000E+00  0.00000000E+00
  0.00000000E+00  0.00000000E+00  0.00000000E+00
  0.00000000E+00  0.00000000E+00  0.00000000E+00
  0.00000000E+00  0.00000000E+00  0.00000000E+00
  0.00000000E+00  0.00000000E+00  0.00000000E+00
  0.00000000E+00  0.00000000E+00  0.00000000E+00
  0.00000000E+00  0.00000000E+00  0.00000000E+00
  0.00000000E+00  0.00000000E+00  0.00000000E+00
  0.00000000E+00  0.00000000E+00  0.00000000E+00
  0.00000000E+00  0.00000000E+00  0.00000000E+00
  0.00000000E+00  0.00000000E+00  0.00000000E+00
  0.00000000E+00  0.00000000E+00  0.00000000E+00
  0.00000000E+00  0.00000000E+00  0.00000000E+00
  0.00000000E+00  0.00000000E+00  0.00000000E+00
  0.00000000E+00  0.00000000E+00  0.00000000E+00
  0.00000000E+00  0.00000000E+00  0.00000000E+00
  0.00000000E+00  0.00000000E+00  0.00000000E+00
  0.00000000E+00  0.00000000E+00  0.00000000E+00
  0.00000000E+00  0.00000000E+00  0.00000000E+00
  0.00000000E+00  0.00000000E+00  0.00000000E+00
  0.00000000E+00  0.00000000E+00  0.00000000E+00
  0.00000000E+00  0.00000000E+00  0.00000000E+00
