C Cu H O                                
   1.00000000000000     
     5.0397311801970002    0.0000000000000000    0.0000000000000000
     0.0000000000000000   15.5334947292029995    0.0000000000000000
     0.0000000000000000    0.0000000000000000   22.2262101700959995
   C    Cu   H    O 
     2    42     4     3
Selective dynamics
Direct
  0.2573431631819425  0.3060841431221303  0.4869415383443672   T   T   T
  0.2494042430236178  0.2137823200625733  0.4957859543635011   T   T   T
  0.0000000000000000  0.5789473684209980  0.2000000000000028   F   F   F
  0.5000000000000000  0.5789473684209980  0.2000000000000028   F   F   F
  0.2500000000000000  0.0000000000000000  0.2130048444870027   F   F   F
  0.7500000000000000  0.0000000000000000  0.2130048444870027   F   F   F
  0.0000000000000000  0.4210526315790020  0.2260096889749974   F   F   F
  0.5000000000000000  0.4210526315790020  0.2260096889749974   F   F   F
  0.2500000000000000  0.8421052631579968  0.2390145334619973   F   F   F
  0.7500000000000000  0.8421052631579968  0.2390145334619973   F   F   F
  0.0000000000000000  0.2631578947369988  0.2520193779489972   F   F   F
  0.5000000000000000  0.2631578947369988  0.2520193779489972   F   F   F
  0.2500000000000000  0.6842105263160008  0.2650242224359971   F   F   F
  0.7500000000000000  0.6842105263160008  0.2650242224359971   F   F   F
  0.0000000000000000  0.1052631578950027  0.2780290669239989   F   F   F
  0.5000000000000000  0.1052631578950027  0.2780290669239989   F   F   F
  0.2484151960293362  0.5264449431624929  0.2906597244736939   T   T   T
  0.7512095190013064  0.5270235994751596  0.2903188327823348   T   T   T
  0.9992066315030735  0.9472305576688556  0.3034219339987302   T   T   T
  0.5011609400248999  0.9473248728558842  0.3033724560511430   T   T   T
  0.2484866492562692  0.3683527955184080  0.3175310774314798   T   T   T
  0.7510682171240232  0.3671031614478427  0.3183323129668998   T   T   T
  0.0005917884020816  0.7892833921957292  0.3304734959315319   T   T   T
  0.4995292965246270  0.7895337996858706  0.3300521129990280   T   T   T
  0.2499905150806154  0.2099316644696092  0.3423467235378201   T   T   T
  0.7500376935505063  0.2107242344566378  0.3450628086075372   T   T   T
  0.0043772575929238  0.6322557562184201  0.3576958210882301   T   T   T
  0.4968398602562588  0.6317133741409420  0.3580746548684127   T   T   T
  0.2502108258756590  0.0514649033393510  0.3698331138957652   T   T   T
  0.7501782219196309  0.0539335519740450  0.3711655708031111   T   T   T
  0.9983103547680604  0.4719406447113673  0.3845117478749159   T   T   T
  0.5002482177054549  0.4726712332364452  0.3814367091639855   T   T   T
  0.2503368561872489  0.8914463762474962  0.3977130114408653   T   T   T
  0.7497061493004775  0.8926274689254059  0.3968570092675827   T   T   T
  0.0017281453435180  0.3174818648491592  0.4128450044034119   T   T   T
  0.4992913423995367  0.3188693930018928  0.4119145419583996   T   T   T
  0.2514198048559911  0.7361080754388089  0.4225973722517563   T   T   T
  0.7491994489544239  0.7378435170001391  0.4219903177774335   T   T   T
  0.9997153271453059  0.1571530208445493  0.4376894961911487   T   T   T
  0.5012230123885579  0.1577572817501185  0.4377200289074547   T   T   T
  0.2541703396799441  0.5767535194834730  0.4514770113483628   T   T   T
  0.7496852384540816  0.5807721543607905  0.4442556238545753   T   T   T
  0.0001207351449051  0.9969196842353991  0.4583726521439491   T   T   T
  0.4997440551279848  0.9972992670884058  0.4583536099118197   T   T   T
  0.2449967083966007  0.1241516261778834  0.5543770721216214   T   T   T
  0.9746152113647616  0.5048468686458951  0.4573076338327371   T   T   T
  0.5228186869541239  0.5328504160243220  0.5528931825465258   T   T   T
  0.3190068823395867  0.4597092623540597  0.5314081313735175   T   T   T
  0.2604271522235488  0.3616763201227928  0.5281441383816602   T   T   T
  0.2458910831893524  0.1871738899599365  0.5548763605510351   T   T   T
  0.3479338023970793  0.5248885826406949  0.5350680556894696   T   T   T
 
  0.00000000E+00  0.00000000E+00  0.00000000E+00
  0.00000000E+00  0.00000000E+00  0.00000000E+00
  0.00000000E+00  0.00000000E+00  0.00000000E+00
  0.00000000E+00  0.00000000E+00  0.00000000E+00
  0.00000000E+00  0.00000000E+00  0.00000000E+00
  0.00000000E+00  0.00000000E+00  0.00000000E+00
  0.00000000E+00  0.00000000E+00  0.00000000E+00
  0.00000000E+00  0.00000000E+00  0.00000000E+00
  0.00000000E+00  0.00000000E+00  0.00000000E+00
  0.00000000E+00  0.00000000E+00  0.00000000E+00
  0.00000000E+00  0.00000000E+00  0.00000000E+00
  0.00000000E+00  0.00000000E+00  0.00000000E+00
  0.00000000E+00  0.00000000E+00  0.00000000E+00
  0.00000000E+00  0.00000000E+00  0.00000000E+00
  0.00000000E+00  0.00000000E+00  0.00000000E+00
  0.00000000E+00  0.00000000E+00  0.00000000E+00
  0.00000000E+00  0.00000000E+00  0.00000000E+00
  0.00000000E+00  0.00000000E+00  0.00000000E+00
  0.00000000E+00  0.00000000E+00  0.00000000E+00
  0.00000000E+00  0.00000000E+00  0.00000000E+00
  0.00000000E+00  0.00000000E+00  0.00000000E+00
  0.00000000E+00  0.00000000E+00  0.00000000E+00
  0.00000000E+00  0.00000000E+00  0.00000000E+00
  0.00000000E+00  0.00000000E+00  0.00000000E+00
  0.00000000E+00  0.00000000E+00  0.00000000E+00
  0.00000000E+00  0.00000000E+00  0.00000000E+00
  0.00000000E+00  0.00000000E+00  0.00000000E+00
  0.00000000E+00  0.00000000E+00  0.00000000E+00
  0.00000000E+00  0.00000000E+00  0.00000000E+00
  0.00000000E+00  0.00000000E+00  0.00000000E+00
  0.00000000E+00  0.00000000E+00  0.00000000E+00
  0.00000000E+00  0.00000000E+00  0.00000000E+00
  0.00000000E+00  0.00000000E+00  0.00000000E+00
  0.00000000E+00  0.00000000E+00  0.00000000E+00
  0.00000000E+00  0.00000000E+00  0.00000000E+00
  0.00000000E+00  0.00000000E+00  0.00000000E+00
  0.00000000E+00  0.00000000E+00  0.00000000E+00
  0.00000000E+00  0.00000000E+00  0.00000000E+00
  0.00000000E+00  0.00000000E+00  0.00000000E+00
  0.00000000E+00  0.00000000E+00  0.00000000E+00
  0.00000000E+00  0.00000000E+00  0.00000000E+00
  0.00000000E+00  0.00000000E+00  0.00000000E+00
  0.00000000E+00  0.00000000E+00  0.00000000E+00
  0.00000000E+00  0.00000000E+00  0.00000000E+00
  0.00000000E+00  0.00000000E+00  0.00000000E+00
  0.00000000E+00  0.00000000E+00  0.00000000E+00
  0.00000000E+00  0.00000000E+00  0.00000000E+00
  0.00000000E+00  0.00000000E+00  0.00000000E+00
  0.00000000E+00  0.00000000E+00  0.00000000E+00
  0.00000000E+00  0.00000000E+00  0.00000000E+00
  0.00000000E+00  0.00000000E+00  0.00000000E+00
