C Cu H O                                
   1.00000000000000     
     5.0397311801970002    0.0000000000000000    0.0000000000000000
     0.0000000000000000   15.5334947292029995    0.0000000000000000
     0.0000000000000000    0.0000000000000000   22.2262101700959995
   C    Cu   H    O 
     2    42     3     3
Selective dynamics
Direct
  0.7471449446611922  0.3058374727828947  0.4869088223317664   T   T   T
  0.7493770103011727  0.2135173231463137  0.4954495620098470   T   T   T
  0.4999998829109984  0.5789473684209980  0.2000000000000028   F   F   F
  0.9999998829109984  0.5789473684209980  0.2000000000000028   F   F   F
  0.7499998829109984  0.0000000000000000  0.2130048444870027   F   F   F
  0.2500001170890016  0.0000000000000000  0.2130048444870027   F   F   F
  0.4999998829109984  0.4210526315790020  0.2260096889749974   F   F   F
  0.9999998829109984  0.4210526315790020  0.2260096889749974   F   F   F
  0.7499998829109984  0.8421052631579968  0.2390145334619973   F   F   F
  0.2500001170890016  0.8421052631579968  0.2390145334619973   F   F   F
  0.4999998829109984  0.2631578947369988  0.2520193779489972   F   F   F
  0.9999998829109984  0.2631578947369988  0.2520193779489972   F   F   F
  0.7499998829109984  0.6842105263160008  0.2650242224359971   F   F   F
  0.2500001170890016  0.6842105263160008  0.2650242224359971   F   F   F
  0.4999998829109984  0.1052631578950027  0.2780290669239989   F   F   F
  0.9999998829109984  0.1052631578950027  0.2780290669239989   F   F   F
  0.7506130071760143  0.5263995759597688  0.2903576659436328   T   T   T
  0.2505706789274609  0.5269341579960124  0.2898464296352121   T   T   T
  0.4988967842322551  0.9471868142442030  0.3034314088164738   T   T   T
  0.0009038843748247  0.9472106189836718  0.3034443049364527   T   T   T
  0.7500941555046767  0.3685583644675554  0.3175633829668327   T   T   T
  0.2499789965117415  0.3670535605245270  0.3185704085437638   T   T   T
  0.5001143208300891  0.7890388861846873  0.3302802190017327   T   T   T
  0.0001318152590498  0.7890931776618884  0.3302510199664198   T   T   T
  0.7496248853668656  0.2104317619078876  0.3423369383905949   T   T   T
  0.2494871674556441  0.2108822902873702  0.3450614657397474   T   T   T
  0.5040857983980486  0.6310363080630280  0.3582346422194013   T   T   T
 -0.0014226575893636  0.6310955405850893  0.3581142280519461   T   T   T
  0.7497976058071290  0.0516871689161914  0.3697724826592724   T   T   T
  0.2497243449778520  0.0537990934211716  0.3710869983313470   T   T   T
  0.4996162752049984  0.4731993954275953  0.3829749617344146   T   T   T
  0.0028641291819783  0.4730587415888988  0.3830200438009710   T   T   T
  0.7497692806004802  0.8918953403811830  0.3974899883544762   T   T   T
  0.2498609370878020  0.8921434392148189  0.3971118212828088   T   T   T
  0.4995675208128279  0.3193509980290803  0.4126501799749042   T   T   T
 -0.0022813050104290  0.3192406658996411  0.4128077346866009   T   T   T
  0.7509426339550557  0.7372473665722123  0.4219824325546085   T   T   T
  0.2506270907329866  0.7372368731670481  0.4221925470380300   T   T   T
  0.4984700455234747  0.1577336575967475  0.4372955818255811   T   T   T
  0.0005599900464739  0.1577096211986782  0.4374353066927679   T   T   T
  0.7529769914397421  0.5789508720744705  0.4496013215650341   T   T   T
  0.2522176065791943  0.5792299014297723  0.4448101718173673   T   T   T
  0.4999633933956489  0.9973498052986469  0.4582958114844672   T   T   T
  0.9995504402031230  0.9972725337610269  0.4582971893379461   T   T   T
  0.7491490339004424  0.1232939734886096  0.5535548291417791   T   T   T
 -0.0968653845015703  0.5372136113173577  0.5572509756602204   T   T   T
  0.7475605882111592  0.4567512719256078  0.5283238925433006   T   T   T
  0.7433909754906076  0.3605234542727997  0.5288939086900784   T   T   T
  0.7486306244517817  0.1863288421064767  0.5544186121295271   T   T   T
  0.7512802500693213  0.5234664368995765  0.5318805636834477   T   T   T
 
  0.00000000E+00  0.00000000E+00  0.00000000E+00
  0.00000000E+00  0.00000000E+00  0.00000000E+00
  0.00000000E+00  0.00000000E+00  0.00000000E+00
  0.00000000E+00  0.00000000E+00  0.00000000E+00
  0.00000000E+00  0.00000000E+00  0.00000000E+00
  0.00000000E+00  0.00000000E+00  0.00000000E+00
  0.00000000E+00  0.00000000E+00  0.00000000E+00
  0.00000000E+00  0.00000000E+00  0.00000000E+00
  0.00000000E+00  0.00000000E+00  0.00000000E+00
  0.00000000E+00  0.00000000E+00  0.00000000E+00
  0.00000000E+00  0.00000000E+00  0.00000000E+00
  0.00000000E+00  0.00000000E+00  0.00000000E+00
  0.00000000E+00  0.00000000E+00  0.00000000E+00
  0.00000000E+00  0.00000000E+00  0.00000000E+00
  0.00000000E+00  0.00000000E+00  0.00000000E+00
  0.00000000E+00  0.00000000E+00  0.00000000E+00
  0.00000000E+00  0.00000000E+00  0.00000000E+00
  0.00000000E+00  0.00000000E+00  0.00000000E+00
  0.00000000E+00  0.00000000E+00  0.00000000E+00
  0.00000000E+00  0.00000000E+00  0.00000000E+00
  0.00000000E+00  0.00000000E+00  0.00000000E+00
  0.00000000E+00  0.00000000E+00  0.00000000E+00
  0.00000000E+00  0.00000000E+00  0.00000000E+00
  0.00000000E+00  0.00000000E+00  0.00000000E+00
  0.00000000E+00  0.00000000E+00  0.00000000E+00
  0.00000000E+00  0.00000000E+00  0.00000000E+00
  0.00000000E+00  0.00000000E+00  0.00000000E+00
  0.00000000E+00  0.00000000E+00  0.00000000E+00
  0.00000000E+00  0.00000000E+00  0.00000000E+00
  0.00000000E+00  0.00000000E+00  0.00000000E+00
  0.00000000E+00  0.00000000E+00  0.00000000E+00
  0.00000000E+00  0.00000000E+00  0.00000000E+00
  0.00000000E+00  0.00000000E+00  0.00000000E+00
  0.00000000E+00  0.00000000E+00  0.00000000E+00
  0.00000000E+00  0.00000000E+00  0.00000000E+00
  0.00000000E+00  0.00000000E+00  0.00000000E+00
  0.00000000E+00  0.00000000E+00  0.00000000E+00
  0.00000000E+00  0.00000000E+00  0.00000000E+00
  0.00000000E+00  0.00000000E+00  0.00000000E+00
  0.00000000E+00  0.00000000E+00  0.00000000E+00
  0.00000000E+00  0.00000000E+00  0.00000000E+00
  0.00000000E+00  0.00000000E+00  0.00000000E+00
  0.00000000E+00  0.00000000E+00  0.00000000E+00
  0.00000000E+00  0.00000000E+00  0.00000000E+00
  0.00000000E+00  0.00000000E+00  0.00000000E+00
  0.00000000E+00  0.00000000E+00  0.00000000E+00
  0.00000000E+00  0.00000000E+00  0.00000000E+00
  0.00000000E+00  0.00000000E+00  0.00000000E+00
  0.00000000E+00  0.00000000E+00  0.00000000E+00
  0.00000000E+00  0.00000000E+00  0.00000000E+00
